generated by phonopy                    
    1.000000000000000     
    14.1786092000000004    0.0000000000000000    0.0000000000000000
     0.0000000000000000   14.1786092000000004    0.0000000000000000
     0.0000000000000000    0.0000000000000000   14.1786092000000004
   N    C 
     1   510
Direct
     0.9938437081451877    0.9938437081451877    0.9938437081451877
     0.2494340237639140    0.0003569568015341    0.0003569568015341
     0.4999326848788856    0.0000141293579021    0.0000141293579021
     0.7500018168623629    0.9998958060109183    0.9998958060109183
     0.0003569568015341    0.2494340237639140    0.0003569568015341
     0.2506355334556180    0.2506355334556180    0.0004716216234446
     0.5000513761521358    0.2499878927591311    0.0000535158078533
     0.7504087578214812    0.2496195943989723    0.0000722748187084
     0.0000141293579021    0.4999326848788856    0.0000141293579021
     0.2499878927591311    0.5000513761521358    0.0000535158078533
     0.5000655194266685    0.5000655194266685    0.0000223789028498
     0.7500285493882596    0.4999090592169493    0.9999786226433791
     0.9998958060109183    0.7500018168623629    0.9998958060109183
     0.2496195943989723    0.7504087578214812    0.0000722748187084
     0.4999090592169493    0.7500285493882596    0.9999786226433791
     0.7496969157600188    0.7496969157600188    0.9998796635936766
     0.0003569568015341    0.0003569568015341    0.2494340237639140
     0.2506355334556180    0.0004716216234446    0.2506355334556180
     0.5000513761521358    0.0000535158078533    0.2499878927591311
     0.7504087578214812    0.0000722748187084    0.2496195943989723
     0.0004716216234446    0.2506355334556180    0.2506355334556180
     0.2500574567958325    0.2500574567958325    0.2500574567958325
     0.5001208973318342    0.2500423854616963    0.2500423854616963
     0.7501133859034267    0.2499533172393799    0.2499533172393799
     0.0000535158078533    0.5000513761521358    0.2499878927591311
     0.2500423854616963    0.5001208973318342    0.2500423854616963
     0.5000504802552520    0.5000504802552520    0.2500039118911364
     0.7500658256679419    0.5000223010964946    0.2499614335988155
     0.0000722748187084    0.7504087578214812    0.2496195943989723
     0.2499533172393799    0.7501133859034267    0.2499533172393799
     0.5000223010964946    0.7500658256679419    0.2499614335988155
     0.7500786394107886    0.7500786394107886    0.2498898083580431
     0.0000141293579021    0.0000141293579021    0.4999326848788856
     0.2499878927591311    0.0000535158078533    0.5000513761521358
     0.5000655194266685    0.0000223789028498    0.5000655194266685
     0.7500285493882596    0.9999786226433791    0.4999090592169493
     0.0000535158078533    0.2499878927591311    0.5000513761521358
     0.2500423854616963    0.2500423854616963    0.5001208973318342
     0.5000504802552520    0.2500039118911364    0.5000504802552520
     0.7500658256679419    0.2499614335988155    0.5000223010964946
     0.0000223789028498    0.5000655194266685    0.5000655194266685
     0.2500039118911364    0.5000504802552520    0.5000504802552520
     0.5000075216823888    0.5000075216823888    0.5000075216823888
     0.7500252301432792    0.4999652874181568    0.4999652874181568
     0.9999786226433791    0.7500285493882596    0.4999090592169493
     0.2499614335988155    0.7500658256679419    0.5000223010964946
     0.4999652874181568    0.7500252301432792    0.4999652874181568
     0.7499921908323645    0.7499921908323645    0.4998641001338974
     0.9998958060109183    0.9998958060109183    0.7500018168623629
     0.2496195943989723    0.0000722748187084    0.7504087578214812
     0.4999090592169493    0.9999786226433791    0.7500285493882596
     0.7496969157600188    0.9998796635936766    0.7496969157600188
     0.0000722748187084    0.2496195943989723    0.7504087578214812
     0.2499533172393799    0.2499533172393799    0.7501133859034267
     0.5000223010964946    0.2499614335988155    0.7500658256679419
     0.7500786394107886    0.2498898083580431    0.7500786394107886
     0.9999786226433791    0.4999090592169493    0.7500285493882596
     0.2499614335988155    0.5000223010964946    0.7500658256679419
     0.4999652874181568    0.4999652874181568    0.7500252301432792
     0.7499921908323645    0.4998641001338974    0.7499921908323645
     0.9998796635936766    0.7496969157600188    0.7496969157600188
     0.2498898083580431    0.7500786394107886    0.7500786394107886
     0.4998641001338974    0.7499921908323645    0.7499921908323645
     0.7498758158465250    0.7498758158465250    0.7498758158465250
     0.3122060872910331    0.0626593762546626    0.0626593762546626
     0.5625157834092176    0.0624846142790627    0.0624846142790627
     0.8128918044732815    0.0623833490813921    0.0623833490813921
     0.0626593762546626    0.3122060872910331    0.0626593762546626
     0.3129213349641349    0.3129213349641349    0.0625331082038229
     0.5625905303936063    0.3124567613866290    0.0625141910049848
     0.8125196837697468    0.3124962671761591    0.0625801202312491
     0.0624846142790627    0.5625157834092176    0.0624846142790627
     0.3124567613866290    0.5625905303936063    0.0625141910049848
     0.5625004368874267    0.5625004368874267    0.0624805923017171
     0.8125151704890712    0.5624293861367116    0.0624574926791665
     0.0623833490813921    0.8128918044732815    0.0623833490813921
     0.3124962671761591    0.8125196837697468    0.0625801202312491
     0.5624293861367116    0.8125151704890712    0.0624574926791665
     0.8120532321538244    0.8120532321538244    0.0622129137190175
     0.0626593762546626    0.0626593762546626    0.3122060872910331
     0.3129213349641349    0.0625331082038229    0.3129213349641349
     0.5625905303936063    0.0625141910049848    0.3124567613866290
     0.8125196837697468    0.0625801202312491    0.3124962671761591
     0.0625331082038229    0.3129213349641349    0.3129213349641349
     0.3125354380835435    0.3125354380835435    0.3125354380835435
     0.5625776524177093    0.3125177787799621    0.3125177787799621
     0.8125996073970039    0.3124661723510452    0.3124661723510452
     0.0625141910049848    0.5625905303936063    0.3124567613866290
     0.3125177787799621    0.5625776524177093    0.3125177787799621
     0.5625374697507486    0.5625374697507486    0.3124681515326844
     0.8125391342567860    0.5625437054962082    0.3124379136382352
     0.0625801202312491    0.8125196837697468    0.3124962671761591
     0.3124661723510452    0.8125996073970039    0.3124661723510452
     0.5625437054962082    0.8125391342567860    0.3124379136382352
     0.8126561917501428    0.8126561917501428    0.3122124771662566
     0.0624846142790627    0.0624846142790627    0.5625157834092176
     0.3124567613866290    0.0625141910049848    0.5625905303936063
     0.5625004368874267    0.0624805923017171    0.5625004368874267
     0.8125151704890712    0.0624574926791665    0.5624293861367116
     0.0625141910049848    0.3124567613866290    0.5625905303936063
     0.3125177787799621    0.3125177787799621    0.5625776524177093
     0.5625374697507486    0.3124681515326844    0.5625374697507486
     0.8125391342567860    0.3124379136382352    0.5625437054962082
     0.0624805923017171    0.5625004368874267    0.5625004368874267
     0.3124681515326844    0.5625374697507486    0.5625374697507486
     0.5624781840169044    0.5624781840169044    0.5624781840169044
     0.8124948034155898    0.5624371766989295    0.5624371766989295
     0.0624574926791665    0.8125151704890712    0.5624293861367116
     0.3124379136382352    0.8125391342567860    0.5625437054962082
     0.5624371766989295    0.8124948034155898    0.5624371766989295
     0.8124415490225012    0.8124415490225012    0.5623458468711386
     0.0623833490813921    0.0623833490813921    0.8128918044732815
     0.3124962671761591    0.0625801202312491    0.8125196837697468
     0.5624293861367116    0.0624574926791665    0.8125151704890712
     0.8120532321538244    0.0622129137190175    0.8120532321538244
     0.0625801202312491    0.3124962671761591    0.8125196837697468
     0.3124661723510452    0.3124661723510452    0.8125996073970039
     0.5625437054962082    0.3124379136382352    0.8125391342567860
     0.8126561917501428    0.3122124771662566    0.8126561917501428
     0.0624574926791665    0.5624293861367116    0.8125151704890712
     0.3124379136382352    0.5625437054962082    0.8125391342567860
     0.5624371766989295    0.5624371766989295    0.8124948034155898
     0.8124415490225012    0.5623458468711386    0.8124415490225012
     0.0622129137190175    0.8120532321538244    0.8120532321538244
     0.3122124771662566    0.8126561917501428    0.8126561917501428
     0.5623458468711386    0.8124415490225012    0.8124415490225012
     0.8122998276572475    0.8122998276572475    0.8122998276572475
     0.1290538115978745    0.1290538115978745    0.9979818629518910
     0.3749054222475990    0.1250272850238519    0.0001449985173892
     0.6250710115049239    0.1249468937149781    0.9999942620875675
     0.8762986726956119    0.1237804398261116    0.0005124671063173
     0.1250272850238519    0.3749054222475990    0.0001449985173892
     0.3752516103227864    0.3752516103227864    0.0001023707466301
     0.6251419816870784    0.3748764694750314    0.0000284580607651
     0.8751204570830956    0.3748223762495724    0.0000413969082657
     0.1249468937149781    0.6250710115049239    0.9999942620875675
     0.3748764694750314    0.6251419816870784    0.0000284580607651
     0.6249171583277570    0.6249171583277570    0.9999702936170897
     0.8749632303116507    0.6249214345076282    0.9999360428504996
     0.1237804398261116    0.8762986726956119    0.0005124671063173
     0.3748223762495724    0.8751204570830956    0.0000413969082657
     0.6249214345076282    0.8749632303116507    0.9999360428504996
     0.8740025091983481    0.8740025091983481    0.9996291159413044
     0.1251462672631705    0.1251462672631705    0.2498627171914793
     0.3751191697931328    0.1251134461014063    0.2501292834795180
     0.6251472651274683    0.1249875438828649    0.2499519515679140
     0.8749425081052635    0.1247723844658345    0.2501319920655076
     0.1251134461014063    0.3751191697931328    0.2501292834795180
     0.3750694962279595    0.3750694962279595    0.2500573699643525
     0.6250827787465622    0.3750082921059353    0.2500001584525529
     0.8751120712435432    0.3750055225754259    0.2499689659983674
     0.1249875438828649    0.6251472651274683    0.2499519515679140
     0.3750082921059353    0.6250827787465622    0.2500001584525529
     0.6250493280589078    0.6250493280589078    0.2499498828122837
     0.8750449532390179    0.6250815932805659    0.2499039596475590
     0.1247723844658345    0.8749425081052635    0.2501319920655076
     0.3750055225754259    0.8751120712435432    0.2499689659983674
     0.6250815932805659    0.8750449532390179    0.2499039596475590
     0.8752901957605645    0.8752901957605645    0.2495835666519366
     0.1250288457951911    0.1250288457951911    0.5000460727637334
     0.3750519638955284    0.1250305184830492    0.5001131817345832
     0.6250331633174955    0.1249763249475142    0.5000267746262073
     0.8750610680322298    0.1249717866374078    0.4999591322126835
     0.1250305184830492    0.3750519638955284    0.5001131817345832
     0.3750298573353254    0.3750298573353254    0.5000589489413421
     0.6250490609875522    0.3749725602094598    0.5000120791404192
     0.8750417550816625    0.3749657808027383    0.5000470853070463
     0.1249763249475142    0.6250331633174955    0.5000267746262073
     0.3749725602094598    0.6250490609875522    0.5000120791404192
     0.6249911900382756    0.6249911900382756    0.4999462804928542
     0.8749997792464806    0.6250030933342569    0.4998987836715703
     0.1249717866374078    0.8750610680322298    0.4999591322126835
     0.3749657808027383    0.8750417550816625    0.5000470853070463
     0.6250030933342569    0.8749997792464806    0.4998987836715703
     0.8749946985910954    0.8749946985910954    0.4998778555399584
     0.1249198104211682    0.1249198104211682    0.7502686030789311
     0.3750361187043339    0.1249585358429408    0.7499950853423493
     0.6249977396988192    0.1249312180194974    0.7500269794021055
     0.8749965158263545    0.1247759640391685    0.7501262347002586
     0.1249585358429408    0.3750361187043339    0.7499950853423493
     0.3749772038740778    0.3749772038740778    0.7500894137836716
     0.6250358984375874    0.3749194705039794    0.7500365389863380
     0.8750591192518120    0.3748079693552619    0.7501243625971427
     0.1249312180194974    0.6249977396988192    0.7500269794021055
     0.3749194705039794    0.6250358984375874    0.7500365389863380
     0.6249229224231203    0.6249229224231203    0.7499618037931327
     0.8749221160034443    0.6248300194627524    0.7498979139337127
     0.1247759640391685    0.8749965158263545    0.7501262347002586
     0.3748079693552619    0.8750591192518120    0.7501243625971427
     0.6248300194627524    0.8749221160034443    0.7498979139337127
     0.8747648687379400    0.8747648687379400    0.7496379596979080
     0.1290538115978745    0.9979818629518910    0.1290538115978745
     0.3749054222475990    0.0001449985173892    0.1250272850238519
     0.6250710115049239    0.9999942620875675    0.1249468937149781
     0.8762986726956119    0.0005124671063173    0.1237804398261116
     0.1251462672631705    0.2498627171914793    0.1251462672631705
     0.3751191697931328    0.2501292834795180    0.1251134461014063
     0.6251472651274683    0.2499519515679140    0.1249875438828649
     0.8749425081052635    0.2501319920655076    0.1247723844658345
     0.1250288457951911    0.5000460727637334    0.1250288457951911
     0.3750519638955284    0.5001131817345832    0.1250305184830492
     0.6250331633174955    0.5000267746262073    0.1249763249475142
     0.8750610680322298    0.4999591322126835    0.1249717866374078
     0.1249198104211682    0.7502686030789311    0.1249198104211682
     0.3750361187043339    0.7499950853423493    0.1249585358429408
     0.6249977396988192    0.7500269794021055    0.1249312180194974
     0.8749965158263545    0.7501262347002586    0.1247759640391685
     0.1250272850238519    0.0001449985173892    0.3749054222475990
     0.3752516103227864    0.0001023707466301    0.3752516103227864
     0.6251419816870784    0.0000284580607651    0.3748764694750314
     0.8751204570830956    0.0000413969082657    0.3748223762495724
     0.1251134461014063    0.2501292834795180    0.3751191697931328
     0.3750694962279595    0.2500573699643525    0.3750694962279595
     0.6250827787465622    0.2500001584525529    0.3750082921059353
     0.8751120712435432    0.2499689659983674    0.3750055225754259
     0.1250305184830492    0.5001131817345832    0.3750519638955284
     0.3750298573353254    0.5000589489413421    0.3750298573353254
     0.6250490609875522    0.5000120791404192    0.3749725602094598
     0.8750417550816625    0.5000470853070463    0.3749657808027383
     0.1249585358429408    0.7499950853423493    0.3750361187043339
     0.3749772038740778    0.7500894137836716    0.3749772038740778
     0.6250358984375874    0.7500365389863380    0.3749194705039794
     0.8750591192518120    0.7501243625971427    0.3748079693552619
     0.1249468937149781    0.9999942620875675    0.6250710115049239
     0.3748764694750314    0.0000284580607651    0.6251419816870784
     0.6249171583277570    0.9999702936170897    0.6249171583277570
     0.8749632303116507    0.9999360428504996    0.6249214345076282
     0.1249875438828649    0.2499519515679140    0.6251472651274683
     0.3750082921059353    0.2500001584525529    0.6250827787465622
     0.6250493280589078    0.2499498828122837    0.6250493280589078
     0.8750449532390179    0.2499039596475590    0.6250815932805659
     0.1249763249475142    0.5000267746262073    0.6250331633174955
     0.3749725602094598    0.5000120791404192    0.6250490609875522
     0.6249911900382756    0.4999462804928542    0.6249911900382756
     0.8749997792464806    0.4998987836715703    0.6250030933342569
     0.1249312180194974    0.7500269794021055    0.6249977396988192
     0.3749194705039794    0.7500365389863380    0.6250358984375874
     0.6249229224231203    0.7499618037931327    0.6249229224231203
     0.8749221160034443    0.7498979139337127    0.6248300194627524
     0.1237804398261116    0.0005124671063173    0.8762986726956119
     0.3748223762495724    0.0000413969082657    0.8751204570830956
     0.6249214345076282    0.9999360428504996    0.8749632303116507
     0.8740025091983481    0.9996291159413044    0.8740025091983481
     0.1247723844658345    0.2501319920655076    0.8749425081052635
     0.3750055225754259    0.2499689659983674    0.8751120712435432
     0.6250815932805659    0.2499039596475590    0.8750449532390179
     0.8752901957605645    0.2495835666519366    0.8752901957605645
     0.1249717866374078    0.4999591322126835    0.8750610680322298
     0.3749657808027383    0.5000470853070463    0.8750417550816625
     0.6250030933342569    0.4998987836715703    0.8749997792464806
     0.8749946985910954    0.4998778555399584    0.8749946985910954
     0.1247759640391685    0.7501262347002586    0.8749965158263545
     0.3748079693552619    0.7501243625971427    0.8750591192518120
     0.6248300194627524    0.7498979139337127    0.8749221160034443
     0.8747648687379400    0.7496379596979080    0.8747648687379400
     0.9979818629518910    0.1290538115978745    0.1290538115978745
     0.2498627171914793    0.1251462672631705    0.1251462672631705
     0.5000460727637334    0.1250288457951911    0.1250288457951911
     0.7502686030789311    0.1249198104211682    0.1249198104211682
     0.0001449985173892    0.3749054222475990    0.1250272850238519
     0.2501292834795180    0.3751191697931328    0.1251134461014063
     0.5001131817345832    0.3750519638955284    0.1250305184830492
     0.7499950853423493    0.3750361187043339    0.1249585358429408
     0.9999942620875675    0.6250710115049239    0.1249468937149781
     0.2499519515679140    0.6251472651274683    0.1249875438828649
     0.5000267746262073    0.6250331633174955    0.1249763249475142
     0.7500269794021055    0.6249977396988192    0.1249312180194974
     0.0005124671063173    0.8762986726956119    0.1237804398261116
     0.2501319920655076    0.8749425081052635    0.1247723844658345
     0.4999591322126835    0.8750610680322298    0.1249717866374078
     0.7501262347002586    0.8749965158263545    0.1247759640391685
     0.0001449985173892    0.1250272850238519    0.3749054222475990
     0.2501292834795180    0.1251134461014063    0.3751191697931328
     0.5001131817345832    0.1250305184830492    0.3750519638955284
     0.7499950853423493    0.1249585358429408    0.3750361187043339
     0.0001023707466301    0.3752516103227864    0.3752516103227864
     0.2500573699643525    0.3750694962279595    0.3750694962279595
     0.5000589489413421    0.3750298573353254    0.3750298573353254
     0.7500894137836716    0.3749772038740778    0.3749772038740778
     0.0000284580607651    0.6251419816870784    0.3748764694750314
     0.2500001584525529    0.6250827787465622    0.3750082921059353
     0.5000120791404192    0.6250490609875522    0.3749725602094598
     0.7500365389863380    0.6250358984375874    0.3749194705039794
     0.0000413969082657    0.8751204570830956    0.3748223762495724
     0.2499689659983674    0.8751120712435432    0.3750055225754259
     0.5000470853070463    0.8750417550816625    0.3749657808027383
     0.7501243625971427    0.8750591192518120    0.3748079693552619
     0.9999942620875675    0.1249468937149781    0.6250710115049239
     0.2499519515679140    0.1249875438828649    0.6251472651274683
     0.5000267746262073    0.1249763249475142    0.6250331633174955
     0.7500269794021055    0.1249312180194974    0.6249977396988192
     0.0000284580607651    0.3748764694750314    0.6251419816870784
     0.2500001584525529    0.3750082921059353    0.6250827787465622
     0.5000120791404192    0.3749725602094598    0.6250490609875522
     0.7500365389863380    0.3749194705039794    0.6250358984375874
     0.9999702936170897    0.6249171583277570    0.6249171583277570
     0.2499498828122837    0.6250493280589078    0.6250493280589078
     0.4999462804928542    0.6249911900382756    0.6249911900382756
     0.7499618037931327    0.6249229224231203    0.6249229224231203
     0.9999360428504996    0.8749632303116507    0.6249214345076282
     0.2499039596475590    0.8750449532390179    0.6250815932805659
     0.4998987836715703    0.8749997792464806    0.6250030933342569
     0.7498979139337127    0.8749221160034443    0.6248300194627524
     0.0005124671063173    0.1237804398261116    0.8762986726956119
     0.2501319920655076    0.1247723844658345    0.8749425081052635
     0.4999591322126835    0.1249717866374078    0.8750610680322298
     0.7501262347002586    0.1247759640391685    0.8749965158263545
     0.0000413969082657    0.3748223762495724    0.8751204570830956
     0.2499689659983674    0.3750055225754259    0.8751120712435432
     0.5000470853070463    0.3749657808027383    0.8750417550816625
     0.7501243625971427    0.3748079693552619    0.8750591192518120
     0.9999360428504996    0.6249214345076282    0.8749632303116507
     0.2499039596475590    0.6250815932805659    0.8750449532390179
     0.4998987836715703    0.6250030933342569    0.8749997792464806
     0.7498979139337127    0.6248300194627524    0.8749221160034443
     0.9996291159413044    0.8740025091983481    0.8740025091983481
     0.2495835666519366    0.8752901957605645    0.8752901957605645
     0.4998778555399584    0.8749946985910954    0.8749946985910954
     0.7496379596979080    0.8747648687379400    0.8747648687379400
     0.1875229862244325    0.1875229862244325    0.0623831452048913
     0.4375205502483768    0.1875426740731442    0.0625547841406052
     0.6877073871965528    0.1873762872296421    0.0624858398400546
     0.9388952214537041    0.1865442427426465    0.0631368025838698
     0.1875426740731442    0.4375205502483768    0.0625547841406052
     0.4376672906297434    0.4376672906297434    0.0624925348278419
     0.6875289028892489    0.4374993859288001    0.0625097695327085
     0.9375947665798436    0.4374052205762127    0.0625332887192883
     0.1873762872296421    0.6877073871965528    0.0624858398400546
     0.4374993859288001    0.6875289028892489    0.0625097695327085
     0.6873789219488420    0.6873789219488420    0.0624124311129582
     0.9374881577611268    0.6875282359627209    0.0623968621915859
     0.1865442427426465    0.9388952214537041    0.0631368025838698
     0.4374052205762127    0.9375947665798436    0.0625332887192883
     0.6875282359627209    0.9374881577611268    0.0623968621915859
     0.9376236296151710    0.9376236296151710    0.0594129852207198
     0.1875171457514506    0.1875171457514506    0.3124901382394518
     0.4376159797987752    0.1875562522690835    0.3125366261481947
     0.6875953351676687    0.1875129368823618    0.3124835505443087
     0.9376780273320803    0.1875714808483481    0.3124567123917945
     0.1875562522690835    0.4376159797987752    0.3125366261481947
     0.4375597264998343    0.4375597264998343    0.3125190377116859
     0.6875848210402891    0.4375160397105993    0.3124758175945940
     0.9375565964216060    0.4375723397178536    0.3125239754341864
     0.1875129368823618    0.6875953351676687    0.3124835505443087
     0.4375160397105993    0.6875848210402891    0.3124758175945940
     0.6875694262578977    0.6875694262578977    0.3124114608325355
     0.9375518574185094    0.6877399364134241    0.3122288569464997
     0.1875714808483481    0.9376780273320803    0.3124567123917945
     0.4375723397178536    0.9375565964216060    0.3125239754341864
     0.6877399364134241    0.9375518574185094    0.3122288569464997
     0.9378218133932211    0.9378218133932211    0.3120862175361705
     0.1875024925832675    0.1875024925832675    0.5625998963640024
     0.4375389754499156    0.1875202936410960    0.5625665303919246
     0.6875624486311027    0.1874773619451393    0.5625151475960658
     0.9375490894534514    0.1874628679176261    0.5625280628632676
     0.1875202936410960    0.4375389754499156    0.5625665303919246
     0.4375189545872514    0.4375189545872514    0.5625389002458192
     0.6875412501151562    0.4374605238966485    0.5624979411539489
     0.9375236662848330    0.4374401255996742    0.5625583191555809
     0.1874773619451393    0.6875624486311027    0.5625151475960658
     0.4374605238966485    0.6875412501151562    0.5624979411539489
     0.6874816814070149    0.6874816814070149    0.5624120672644832
     0.9374829324265335    0.6874723866919428    0.5623885381885001
     0.1874628679176261    0.9375490894534514    0.5625280628632676
     0.4374401255996742    0.9375236662848330    0.5625583191555809
     0.6874723866919428    0.9374829324265335    0.5623885381885001
     0.9374976331371477    0.9374976331371477    0.5624036244694754
     0.1874575554191683    0.1874575554191683    0.8126999317923803
     0.4375039678747438    0.1875043140776726    0.8125496588020087
     0.6875842684569375    0.1874114159670333    0.8125718483728961
     0.9376705752099914    0.1867191259503143    0.8132859392400251
     0.1875043140776726    0.4375039678747438    0.8125496588020087
     0.4374978505977275    0.4374978505977275    0.8125484574269863
     0.6875503796271355    0.4373767006701831    0.8125255144004505
     0.9375408694556266    0.4373636435622095    0.8125814760086211
     0.1874114159670333    0.6875842684569375    0.8125718483728961
     0.4373767006701831    0.6875503796271355    0.8125255144004505
     0.6874047408071752    0.6874047408071752    0.8124253258882183
     0.9373811191949311    0.6872809966314919    0.8123289749524659
     0.1867191259503143    0.9376705752099914    0.8132859392400251
     0.4373636435622095    0.9375408694556266    0.8125814760086211
     0.6872809966314919    0.9373811191949311    0.8123289749524659
     0.9371172767636908    0.9371172767636908    0.8119516118230742
     0.1875229862244325    0.0623831452048913    0.1875229862244325
     0.4375205502483768    0.0625547841406052    0.1875426740731442
     0.6877073871965528    0.0624858398400546    0.1873762872296421
     0.9388952214537041    0.0631368025838698    0.1865442427426465
     0.1875171457514506    0.3124901382394518    0.1875171457514506
     0.4376159797987752    0.3125366261481947    0.1875562522690835
     0.6875953351676687    0.3124835505443087    0.1875129368823618
     0.9376780273320803    0.3124567123917945    0.1875714808483481
     0.1875024925832675    0.5625998963640024    0.1875024925832675
     0.4375389754499156    0.5625665303919246    0.1875202936410960
     0.6875624486311027    0.5625151475960658    0.1874773619451393
     0.9375490894534514    0.5625280628632676    0.1874628679176261
     0.1874575554191683    0.8126999317923803    0.1874575554191683
     0.4375039678747438    0.8125496588020087    0.1875043140776726
     0.6875842684569375    0.8125718483728961    0.1874114159670333
     0.9376705752099914    0.8132859392400251    0.1867191259503143
     0.1875426740731442    0.0625547841406052    0.4375205502483768
     0.4376672906297434    0.0624925348278419    0.4376672906297434
     0.6875289028892489    0.0625097695327085    0.4374993859288001
     0.9375947665798436    0.0625332887192883    0.4374052205762127
     0.1875562522690835    0.3125366261481947    0.4376159797987752
     0.4375597264998343    0.3125190377116859    0.4375597264998343
     0.6875848210402891    0.3124758175945940    0.4375160397105993
     0.9375565964216060    0.3125239754341864    0.4375723397178536
     0.1875202936410960    0.5625665303919246    0.4375389754499156
     0.4375189545872514    0.5625389002458192    0.4375189545872514
     0.6875412501151562    0.5624979411539489    0.4374605238966485
     0.9375236662848330    0.5625583191555809    0.4374401255996742
     0.1875043140776726    0.8125496588020087    0.4375039678747438
     0.4374978505977275    0.8125484574269863    0.4374978505977275
     0.6875503796271355    0.8125255144004505    0.4373767006701831
     0.9375408694556266    0.8125814760086211    0.4373636435622095
     0.1873762872296421    0.0624858398400546    0.6877073871965528
     0.4374993859288001    0.0625097695327085    0.6875289028892489
     0.6873789219488420    0.0624124311129582    0.6873789219488420
     0.9374881577611268    0.0623968621915859    0.6875282359627209
     0.1875129368823618    0.3124835505443087    0.6875953351676687
     0.4375160397105993    0.3124758175945940    0.6875848210402891
     0.6875694262578977    0.3124114608325355    0.6875694262578977
     0.9375518574185094    0.3122288569464997    0.6877399364134241
     0.1874773619451393    0.5625151475960658    0.6875624486311027
     0.4374605238966485    0.5624979411539489    0.6875412501151562
     0.6874816814070149    0.5624120672644832    0.6874816814070149
     0.9374829324265335    0.5623885381885001    0.6874723866919428
     0.1874114159670333    0.8125718483728961    0.6875842684569375
     0.4373767006701831    0.8125255144004505    0.6875503796271355
     0.6874047408071752    0.8124253258882183    0.6874047408071752
     0.9373811191949311    0.8123289749524659    0.6872809966314919
     0.1865442427426465    0.0631368025838698    0.9388952214537041
     0.4374052205762127    0.0625332887192883    0.9375947665798436
     0.6875282359627209    0.0623968621915859    0.9374881577611268
     0.9376236296151710    0.0594129852207198    0.9376236296151710
     0.1875714808483481    0.3124567123917945    0.9376780273320803
     0.4375723397178536    0.3125239754341864    0.9375565964216060
     0.6877399364134241    0.3122288569464997    0.9375518574185094
     0.9378218133932211    0.3120862175361705    0.9378218133932211
     0.1874628679176261    0.5625280628632676    0.9375490894534514
     0.4374401255996742    0.5625583191555809    0.9375236662848330
     0.6874723866919428    0.5623885381885001    0.9374829324265335
     0.9374976331371477    0.5624036244694754    0.9374976331371477
     0.1867191259503143    0.8132859392400251    0.9376705752099914
     0.4373636435622095    0.8125814760086211    0.9375408694556266
     0.6872809966314919    0.8123289749524659    0.9373811191949311
     0.9371172767636908    0.8119516118230742    0.9371172767636908
     0.0623831452048913    0.1875229862244325    0.1875229862244325
     0.3124901382394518    0.1875171457514506    0.1875171457514506
     0.5625998963640024    0.1875024925832675    0.1875024925832675
     0.8126999317923803    0.1874575554191683    0.1874575554191683
     0.0625547841406052    0.4375205502483768    0.1875426740731442
     0.3125366261481947    0.4376159797987752    0.1875562522690835
     0.5625665303919246    0.4375389754499156    0.1875202936410960
     0.8125496588020087    0.4375039678747438    0.1875043140776726
     0.0624858398400546    0.6877073871965528    0.1873762872296421
     0.3124835505443087    0.6875953351676687    0.1875129368823618
     0.5625151475960658    0.6875624486311027    0.1874773619451393
     0.8125718483728961    0.6875842684569375    0.1874114159670333
     0.0631368025838698    0.9388952214537041    0.1865442427426465
     0.3124567123917945    0.9376780273320803    0.1875714808483481
     0.5625280628632676    0.9375490894534514    0.1874628679176261
     0.8132859392400251    0.9376705752099914    0.1867191259503143
     0.0625547841406052    0.1875426740731442    0.4375205502483768
     0.3125366261481947    0.1875562522690835    0.4376159797987752
     0.5625665303919246    0.1875202936410960    0.4375389754499156
     0.8125496588020087    0.1875043140776726    0.4375039678747438
     0.0624925348278419    0.4376672906297434    0.4376672906297434
     0.3125190377116859    0.4375597264998343    0.4375597264998343
     0.5625389002458192    0.4375189545872514    0.4375189545872514
     0.8125484574269863    0.4374978505977275    0.4374978505977275
     0.0625097695327085    0.6875289028892489    0.4374993859288001
     0.3124758175945940    0.6875848210402891    0.4375160397105993
     0.5624979411539489    0.6875412501151562    0.4374605238966485
     0.8125255144004505    0.6875503796271355    0.4373767006701831
     0.0625332887192883    0.9375947665798436    0.4374052205762127
     0.3125239754341864    0.9375565964216060    0.4375723397178536
     0.5625583191555809    0.9375236662848330    0.4374401255996742
     0.8125814760086211    0.9375408694556266    0.4373636435622095
     0.0624858398400546    0.1873762872296421    0.6877073871965528
     0.3124835505443087    0.1875129368823618    0.6875953351676687
     0.5625151475960658    0.1874773619451393    0.6875624486311027
     0.8125718483728961    0.1874114159670333    0.6875842684569375
     0.0625097695327085    0.4374993859288001    0.6875289028892489
     0.3124758175945940    0.4375160397105993    0.6875848210402891
     0.5624979411539489    0.4374605238966485    0.6875412501151562
     0.8125255144004505    0.4373767006701831    0.6875503796271355
     0.0624124311129582    0.6873789219488420    0.6873789219488420
     0.3124114608325355    0.6875694262578977    0.6875694262578977
     0.5624120672644832    0.6874816814070149    0.6874816814070149
     0.8124253258882183    0.6874047408071752    0.6874047408071752
     0.0623968621915859    0.9374881577611268    0.6875282359627209
     0.3122288569464997    0.9375518574185094    0.6877399364134241
     0.5623885381885001    0.9374829324265335    0.6874723866919428
     0.8123289749524659    0.9373811191949311    0.6872809966314919
     0.0631368025838698    0.1865442427426465    0.9388952214537041
     0.3124567123917945    0.1875714808483481    0.9376780273320803
     0.5625280628632676    0.1874628679176261    0.9375490894534514
     0.8132859392400251    0.1867191259503143    0.9376705752099914
     0.0625332887192883    0.4374052205762127    0.9375947665798436
     0.3125239754341864    0.4375723397178536    0.9375565964216060
     0.5625583191555809    0.4374401255996742    0.9375236662848330
     0.8125814760086211    0.4373636435622095    0.9375408694556266
     0.0623968621915859    0.6875282359627209    0.9374881577611268
     0.3122288569464997    0.6877399364134241    0.9375518574185094
     0.5623885381885001    0.6874723866919428    0.9374829324265335
     0.8123289749524659    0.6872809966314919    0.9373811191949311
     0.0594129852207198    0.9376236296151710    0.9376236296151710
     0.3120862175361705    0.9378218133932211    0.9378218133932211
     0.5624036244694754    0.9374976331371477    0.9374976331371477
     0.8119516118230742    0.9371172767636908    0.9371172767636908
 
  0.00000000E+00  0.00000000E+00  0.00000000E+00
  0.00000000E+00  0.00000000E+00  0.00000000E+00
  0.00000000E+00  0.00000000E+00  0.00000000E+00
  0.00000000E+00  0.00000000E+00  0.00000000E+00
  0.00000000E+00  0.00000000E+00  0.00000000E+00
  0.00000000E+00  0.00000000E+00  0.00000000E+00
  0.00000000E+00  0.00000000E+00  0.00000000E+00
  0.00000000E+00  0.00000000E+00  0.00000000E+00
  0.00000000E+00  0.00000000E+00  0.00000000E+00
  0.00000000E+00  0.00000000E+00  0.00000000E+00
  0.00000000E+00  0.00000000E+00  0.00000000E+00
  0.00000000E+00  0.00000000E+00  0.00000000E+00
  0.00000000E+00  0.00000000E+00  0.00000000E+00
  0.00000000E+00  0.00000000E+00  0.00000000E+00
  0.00000000E+00  0.00000000E+00  0.00000000E+00
  0.00000000E+00  0.00000000E+00  0.00000000E+00
  0.00000000E+00  0.00000000E+00  0.00000000E+00
  0.00000000E+00  0.00000000E+00  0.00000000E+00
  0.00000000E+00  0.00000000E+00  0.00000000E+00
  0.00000000E+00  0.00000000E+00  0.00000000E+00
  0.00000000E+00  0.00000000E+00  0.00000000E+00
  0.00000000E+00  0.00000000E+00  0.00000000E+00
  0.00000000E+00  0.00000000E+00  0.00000000E+00
  0.00000000E+00  0.00000000E+00  0.00000000E+00
  0.00000000E+00  0.00000000E+00  0.00000000E+00
  0.00000000E+00  0.00000000E+00  0.00000000E+00
  0.00000000E+00  0.00000000E+00  0.00000000E+00
  0.00000000E+00  0.00000000E+00  0.00000000E+00
  0.00000000E+00  0.00000000E+00  0.00000000E+00
  0.00000000E+00  0.00000000E+00  0.00000000E+00
  0.00000000E+00  0.00000000E+00  0.00000000E+00
  0.00000000E+00  0.00000000E+00  0.00000000E+00
  0.00000000E+00  0.00000000E+00  0.00000000E+00
  0.00000000E+00  0.00000000E+00  0.00000000E+00
  0.00000000E+00  0.00000000E+00  0.00000000E+00
  0.00000000E+00  0.00000000E+00  0.00000000E+00
  0.00000000E+00  0.00000000E+00  0.00000000E+00
  0.00000000E+00  0.00000000E+00  0.00000000E+00
  0.00000000E+00  0.00000000E+00  0.00000000E+00
  0.00000000E+00  0.00000000E+00  0.00000000E+00
  0.00000000E+00  0.00000000E+00  0.00000000E+00
  0.00000000E+00  0.00000000E+00  0.00000000E+00
  0.00000000E+00  0.00000000E+00  0.00000000E+00
  0.00000000E+00  0.00000000E+00  0.00000000E+00
  0.00000000E+00  0.00000000E+00  0.00000000E+00
  0.00000000E+00  0.00000000E+00  0.00000000E+00
  0.00000000E+00  0.00000000E+00  0.00000000E+00
  0.00000000E+00  0.00000000E+00  0.00000000E+00
  0.00000000E+00  0.00000000E+00  0.00000000E+00
  0.00000000E+00  0.00000000E+00  0.00000000E+00
  0.00000000E+00  0.00000000E+00  0.00000000E+00
  0.00000000E+00  0.00000000E+00  0.00000000E+00
  0.00000000E+00  0.00000000E+00  0.00000000E+00
  0.00000000E+00  0.00000000E+00  0.00000000E+00
  0.00000000E+00  0.00000000E+00  0.00000000E+00
  0.00000000E+00  0.00000000E+00  0.00000000E+00
  0.00000000E+00  0.00000000E+00  0.00000000E+00
  0.00000000E+00  0.00000000E+00  0.00000000E+00
  0.00000000E+00  0.00000000E+00  0.00000000E+00
  0.00000000E+00  0.00000000E+00  0.00000000E+00
  0.00000000E+00  0.00000000E+00  0.00000000E+00
  0.00000000E+00  0.00000000E+00  0.00000000E+00
  0.00000000E+00  0.00000000E+00  0.00000000E+00
  0.00000000E+00  0.00000000E+00  0.00000000E+00
  0.00000000E+00  0.00000000E+00  0.00000000E+00
  0.00000000E+00  0.00000000E+00  0.00000000E+00
  0.00000000E+00  0.00000000E+00  0.00000000E+00
  0.00000000E+00  0.00000000E+00  0.00000000E+00
  0.00000000E+00  0.00000000E+00  0.00000000E+00
  0.00000000E+00  0.00000000E+00  0.00000000E+00
  0.00000000E+00  0.00000000E+00  0.00000000E+00
  0.00000000E+00  0.00000000E+00  0.00000000E+00
  0.00000000E+00  0.00000000E+00  0.00000000E+00
  0.00000000E+00  0.00000000E+00  0.00000000E+00
  0.00000000E+00  0.00000000E+00  0.00000000E+00
  0.00000000E+00  0.00000000E+00  0.00000000E+00
  0.00000000E+00  0.00000000E+00  0.00000000E+00
  0.00000000E+00  0.00000000E+00  0.00000000E+00
  0.00000000E+00  0.00000000E+00  0.00000000E+00
  0.00000000E+00  0.00000000E+00  0.00000000E+00
  0.00000000E+00  0.00000000E+00  0.00000000E+00
  0.00000000E+00  0.00000000E+00  0.00000000E+00
  0.00000000E+00  0.00000000E+00  0.00000000E+00
  0.00000000E+00  0.00000000E+00  0.00000000E+00
  0.00000000E+00  0.00000000E+00  0.00000000E+00
  0.00000000E+00  0.00000000E+00  0.00000000E+00
  0.00000000E+00  0.00000000E+00  0.00000000E+00
  0.00000000E+00  0.00000000E+00  0.00000000E+00
  0.00000000E+00  0.00000000E+00  0.00000000E+00
  0.00000000E+00  0.00000000E+00  0.00000000E+00
  0.00000000E+00  0.00000000E+00  0.00000000E+00
  0.00000000E+00  0.00000000E+00  0.00000000E+00
  0.00000000E+00  0.00000000E+00  0.00000000E+00
  0.00000000E+00  0.00000000E+00  0.00000000E+00
  0.00000000E+00  0.00000000E+00  0.00000000E+00
  0.00000000E+00  0.00000000E+00  0.00000000E+00
  0.00000000E+00  0.00000000E+00  0.00000000E+00
  0.00000000E+00  0.00000000E+00  0.00000000E+00
  0.00000000E+00  0.00000000E+00  0.00000000E+00
  0.00000000E+00  0.00000000E+00  0.00000000E+00
  0.00000000E+00  0.00000000E+00  0.00000000E+00
  0.00000000E+00  0.00000000E+00  0.00000000E+00
  0.00000000E+00  0.00000000E+00  0.00000000E+00
  0.00000000E+00  0.00000000E+00  0.00000000E+00
  0.00000000E+00  0.00000000E+00  0.00000000E+00
  0.00000000E+00  0.00000000E+00  0.00000000E+00
  0.00000000E+00  0.00000000E+00  0.00000000E+00
  0.00000000E+00  0.00000000E+00  0.00000000E+00
  0.00000000E+00  0.00000000E+00  0.00000000E+00
  0.00000000E+00  0.00000000E+00  0.00000000E+00
  0.00000000E+00  0.00000000E+00  0.00000000E+00
  0.00000000E+00  0.00000000E+00  0.00000000E+00
  0.00000000E+00  0.00000000E+00  0.00000000E+00
  0.00000000E+00  0.00000000E+00  0.00000000E+00
  0.00000000E+00  0.00000000E+00  0.00000000E+00
  0.00000000E+00  0.00000000E+00  0.00000000E+00
  0.00000000E+00  0.00000000E+00  0.00000000E+00
  0.00000000E+00  0.00000000E+00  0.00000000E+00
  0.00000000E+00  0.00000000E+00  0.00000000E+00
  0.00000000E+00  0.00000000E+00  0.00000000E+00
  0.00000000E+00  0.00000000E+00  0.00000000E+00
  0.00000000E+00  0.00000000E+00  0.00000000E+00
  0.00000000E+00  0.00000000E+00  0.00000000E+00
  0.00000000E+00  0.00000000E+00  0.00000000E+00
  0.00000000E+00  0.00000000E+00  0.00000000E+00
  0.00000000E+00  0.00000000E+00  0.00000000E+00
  0.00000000E+00  0.00000000E+00  0.00000000E+00
  0.00000000E+00  0.00000000E+00  0.00000000E+00
  0.00000000E+00  0.00000000E+00  0.00000000E+00
  0.00000000E+00  0.00000000E+00  0.00000000E+00
  0.00000000E+00  0.00000000E+00  0.00000000E+00
  0.00000000E+00  0.00000000E+00  0.00000000E+00
  0.00000000E+00  0.00000000E+00  0.00000000E+00
  0.00000000E+00  0.00000000E+00  0.00000000E+00
  0.00000000E+00  0.00000000E+00  0.00000000E+00
  0.00000000E+00  0.00000000E+00  0.00000000E+00
  0.00000000E+00  0.00000000E+00  0.00000000E+00
  0.00000000E+00  0.00000000E+00  0.00000000E+00
  0.00000000E+00  0.00000000E+00  0.00000000E+00
  0.00000000E+00  0.00000000E+00  0.00000000E+00
  0.00000000E+00  0.00000000E+00  0.00000000E+00
  0.00000000E+00  0.00000000E+00  0.00000000E+00
  0.00000000E+00  0.00000000E+00  0.00000000E+00
  0.00000000E+00  0.00000000E+00  0.00000000E+00
  0.00000000E+00  0.00000000E+00  0.00000000E+00
  0.00000000E+00  0.00000000E+00  0.00000000E+00
  0.00000000E+00  0.00000000E+00  0.00000000E+00
  0.00000000E+00  0.00000000E+00  0.00000000E+00
  0.00000000E+00  0.00000000E+00  0.00000000E+00
  0.00000000E+00  0.00000000E+00  0.00000000E+00
  0.00000000E+00  0.00000000E+00  0.00000000E+00
  0.00000000E+00  0.00000000E+00  0.00000000E+00
  0.00000000E+00  0.00000000E+00  0.00000000E+00
  0.00000000E+00  0.00000000E+00  0.00000000E+00
  0.00000000E+00  0.00000000E+00  0.00000000E+00
  0.00000000E+00  0.00000000E+00  0.00000000E+00
  0.00000000E+00  0.00000000E+00  0.00000000E+00
  0.00000000E+00  0.00000000E+00  0.00000000E+00
  0.00000000E+00  0.00000000E+00  0.00000000E+00
  0.00000000E+00  0.00000000E+00  0.00000000E+00
  0.00000000E+00  0.00000000E+00  0.00000000E+00
  0.00000000E+00  0.00000000E+00  0.00000000E+00
  0.00000000E+00  0.00000000E+00  0.00000000E+00
  0.00000000E+00  0.00000000E+00  0.00000000E+00
  0.00000000E+00  0.00000000E+00  0.00000000E+00
  0.00000000E+00  0.00000000E+00  0.00000000E+00
  0.00000000E+00  0.00000000E+00  0.00000000E+00
  0.00000000E+00  0.00000000E+00  0.00000000E+00
  0.00000000E+00  0.00000000E+00  0.00000000E+00
  0.00000000E+00  0.00000000E+00  0.00000000E+00
  0.00000000E+00  0.00000000E+00  0.00000000E+00
  0.00000000E+00  0.00000000E+00  0.00000000E+00
  0.00000000E+00  0.00000000E+00  0.00000000E+00
  0.00000000E+00  0.00000000E+00  0.00000000E+00
  0.00000000E+00  0.00000000E+00  0.00000000E+00
  0.00000000E+00  0.00000000E+00  0.00000000E+00
  0.00000000E+00  0.00000000E+00  0.00000000E+00
  0.00000000E+00  0.00000000E+00  0.00000000E+00
  0.00000000E+00  0.00000000E+00  0.00000000E+00
  0.00000000E+00  0.00000000E+00  0.00000000E+00
  0.00000000E+00  0.00000000E+00  0.00000000E+00
  0.00000000E+00  0.00000000E+00  0.00000000E+00
  0.00000000E+00  0.00000000E+00  0.00000000E+00
  0.00000000E+00  0.00000000E+00  0.00000000E+00
  0.00000000E+00  0.00000000E+00  0.00000000E+00
  0.00000000E+00  0.00000000E+00  0.00000000E+00
  0.00000000E+00  0.00000000E+00  0.00000000E+00
  0.00000000E+00  0.00000000E+00  0.00000000E+00
  0.00000000E+00  0.00000000E+00  0.00000000E+00
  0.00000000E+00  0.00000000E+00  0.00000000E+00
  0.00000000E+00  0.00000000E+00  0.00000000E+00
  0.00000000E+00  0.00000000E+00  0.00000000E+00
  0.00000000E+00  0.00000000E+00  0.00000000E+00
  0.00000000E+00  0.00000000E+00  0.00000000E+00
  0.00000000E+00  0.00000000E+00  0.00000000E+00
  0.00000000E+00  0.00000000E+00  0.00000000E+00
  0.00000000E+00  0.00000000E+00  0.00000000E+00
  0.00000000E+00  0.00000000E+00  0.00000000E+00
  0.00000000E+00  0.00000000E+00  0.00000000E+00
  0.00000000E+00  0.00000000E+00  0.00000000E+00
  0.00000000E+00  0.00000000E+00  0.00000000E+00
  0.00000000E+00  0.00000000E+00  0.00000000E+00
  0.00000000E+00  0.00000000E+00  0.00000000E+00
  0.00000000E+00  0.00000000E+00  0.00000000E+00
  0.00000000E+00  0.00000000E+00  0.00000000E+00
  0.00000000E+00  0.00000000E+00  0.00000000E+00
  0.00000000E+00  0.00000000E+00  0.00000000E+00
  0.00000000E+00  0.00000000E+00  0.00000000E+00
  0.00000000E+00  0.00000000E+00  0.00000000E+00
  0.00000000E+00  0.00000000E+00  0.00000000E+00
  0.00000000E+00  0.00000000E+00  0.00000000E+00
  0.00000000E+00  0.00000000E+00  0.00000000E+00
  0.00000000E+00  0.00000000E+00  0.00000000E+00
  0.00000000E+00  0.00000000E+00  0.00000000E+00
  0.00000000E+00  0.00000000E+00  0.00000000E+00
  0.00000000E+00  0.00000000E+00  0.00000000E+00
  0.00000000E+00  0.00000000E+00  0.00000000E+00
  0.00000000E+00  0.00000000E+00  0.00000000E+00
  0.00000000E+00  0.00000000E+00  0.00000000E+00
  0.00000000E+00  0.00000000E+00  0.00000000E+00
  0.00000000E+00  0.00000000E+00  0.00000000E+00
  0.00000000E+00  0.00000000E+00  0.00000000E+00
  0.00000000E+00  0.00000000E+00  0.00000000E+00
  0.00000000E+00  0.00000000E+00  0.00000000E+00
  0.00000000E+00  0.00000000E+00  0.00000000E+00
  0.00000000E+00  0.00000000E+00  0.00000000E+00
  0.00000000E+00  0.00000000E+00  0.00000000E+00
  0.00000000E+00  0.00000000E+00  0.00000000E+00
  0.00000000E+00  0.00000000E+00  0.00000000E+00
  0.00000000E+00  0.00000000E+00  0.00000000E+00
  0.00000000E+00  0.00000000E+00  0.00000000E+00
  0.00000000E+00  0.00000000E+00  0.00000000E+00
  0.00000000E+00  0.00000000E+00  0.00000000E+00
  0.00000000E+00  0.00000000E+00  0.00000000E+00
  0.00000000E+00  0.00000000E+00  0.00000000E+00
  0.00000000E+00  0.00000000E+00  0.00000000E+00
  0.00000000E+00  0.00000000E+00  0.00000000E+00
  0.00000000E+00  0.00000000E+00  0.00000000E+00
  0.00000000E+00  0.00000000E+00  0.00000000E+00
  0.00000000E+00  0.00000000E+00  0.00000000E+00
  0.00000000E+00  0.00000000E+00  0.00000000E+00
  0.00000000E+00  0.00000000E+00  0.00000000E+00
  0.00000000E+00  0.00000000E+00  0.00000000E+00
  0.00000000E+00  0.00000000E+00  0.00000000E+00
  0.00000000E+00  0.00000000E+00  0.00000000E+00
  0.00000000E+00  0.00000000E+00  0.00000000E+00
  0.00000000E+00  0.00000000E+00  0.00000000E+00
  0.00000000E+00  0.00000000E+00  0.00000000E+00
  0.00000000E+00  0.00000000E+00  0.00000000E+00
  0.00000000E+00  0.00000000E+00  0.00000000E+00
  0.00000000E+00  0.00000000E+00  0.00000000E+00
  0.00000000E+00  0.00000000E+00  0.00000000E+00
  0.00000000E+00  0.00000000E+00  0.00000000E+00
  0.00000000E+00  0.00000000E+00  0.00000000E+00
  0.00000000E+00  0.00000000E+00  0.00000000E+00
  0.00000000E+00  0.00000000E+00  0.00000000E+00
  0.00000000E+00  0.00000000E+00  0.00000000E+00
  0.00000000E+00  0.00000000E+00  0.00000000E+00
  0.00000000E+00  0.00000000E+00  0.00000000E+00
  0.00000000E+00  0.00000000E+00  0.00000000E+00
  0.00000000E+00  0.00000000E+00  0.00000000E+00
  0.00000000E+00  0.00000000E+00  0.00000000E+00
  0.00000000E+00  0.00000000E+00  0.00000000E+00
  0.00000000E+00  0.00000000E+00  0.00000000E+00
  0.00000000E+00  0.00000000E+00  0.00000000E+00
  0.00000000E+00  0.00000000E+00  0.00000000E+00
  0.00000000E+00  0.00000000E+00  0.00000000E+00
  0.00000000E+00  0.00000000E+00  0.00000000E+00
  0.00000000E+00  0.00000000E+00  0.00000000E+00
  0.00000000E+00  0.00000000E+00  0.00000000E+00
  0.00000000E+00  0.00000000E+00  0.00000000E+00
  0.00000000E+00  0.00000000E+00  0.00000000E+00
  0.00000000E+00  0.00000000E+00  0.00000000E+00
  0.00000000E+00  0.00000000E+00  0.00000000E+00
  0.00000000E+00  0.00000000E+00  0.00000000E+00
  0.00000000E+00  0.00000000E+00  0.00000000E+00
  0.00000000E+00  0.00000000E+00  0.00000000E+00
  0.00000000E+00  0.00000000E+00  0.00000000E+00
  0.00000000E+00  0.00000000E+00  0.00000000E+00
  0.00000000E+00  0.00000000E+00  0.00000000E+00
  0.00000000E+00  0.00000000E+00  0.00000000E+00
  0.00000000E+00  0.00000000E+00  0.00000000E+00
  0.00000000E+00  0.00000000E+00  0.00000000E+00
  0.00000000E+00  0.00000000E+00  0.00000000E+00
  0.00000000E+00  0.00000000E+00  0.00000000E+00
  0.00000000E+00  0.00000000E+00  0.00000000E+00
  0.00000000E+00  0.00000000E+00  0.00000000E+00
  0.00000000E+00  0.00000000E+00  0.00000000E+00
  0.00000000E+00  0.00000000E+00  0.00000000E+00
  0.00000000E+00  0.00000000E+00  0.00000000E+00
  0.00000000E+00  0.00000000E+00  0.00000000E+00
  0.00000000E+00  0.00000000E+00  0.00000000E+00
  0.00000000E+00  0.00000000E+00  0.00000000E+00
  0.00000000E+00  0.00000000E+00  0.00000000E+00
  0.00000000E+00  0.00000000E+00  0.00000000E+00
  0.00000000E+00  0.00000000E+00  0.00000000E+00
  0.00000000E+00  0.00000000E+00  0.00000000E+00
  0.00000000E+00  0.00000000E+00  0.00000000E+00
  0.00000000E+00  0.00000000E+00  0.00000000E+00
  0.00000000E+00  0.00000000E+00  0.00000000E+00
  0.00000000E+00  0.00000000E+00  0.00000000E+00
  0.00000000E+00  0.00000000E+00  0.00000000E+00
  0.00000000E+00  0.00000000E+00  0.00000000E+00
  0.00000000E+00  0.00000000E+00  0.00000000E+00
  0.00000000E+00  0.00000000E+00  0.00000000E+00
  0.00000000E+00  0.00000000E+00  0.00000000E+00
  0.00000000E+00  0.00000000E+00  0.00000000E+00
  0.00000000E+00  0.00000000E+00  0.00000000E+00
  0.00000000E+00  0.00000000E+00  0.00000000E+00
  0.00000000E+00  0.00000000E+00  0.00000000E+00
  0.00000000E+00  0.00000000E+00  0.00000000E+00
  0.00000000E+00  0.00000000E+00  0.00000000E+00
  0.00000000E+00  0.00000000E+00  0.00000000E+00
  0.00000000E+00  0.00000000E+00  0.00000000E+00
  0.00000000E+00  0.00000000E+00  0.00000000E+00
  0.00000000E+00  0.00000000E+00  0.00000000E+00
  0.00000000E+00  0.00000000E+00  0.00000000E+00
  0.00000000E+00  0.00000000E+00  0.00000000E+00
  0.00000000E+00  0.00000000E+00  0.00000000E+00
  0.00000000E+00  0.00000000E+00  0.00000000E+00
  0.00000000E+00  0.00000000E+00  0.00000000E+00
  0.00000000E+00  0.00000000E+00  0.00000000E+00
  0.00000000E+00  0.00000000E+00  0.00000000E+00
  0.00000000E+00  0.00000000E+00  0.00000000E+00
  0.00000000E+00  0.00000000E+00  0.00000000E+00
  0.00000000E+00  0.00000000E+00  0.00000000E+00
  0.00000000E+00  0.00000000E+00  0.00000000E+00
  0.00000000E+00  0.00000000E+00  0.00000000E+00
  0.00000000E+00  0.00000000E+00  0.00000000E+00
  0.00000000E+00  0.00000000E+00  0.00000000E+00
  0.00000000E+00  0.00000000E+00  0.00000000E+00
  0.00000000E+00  0.00000000E+00  0.00000000E+00
  0.00000000E+00  0.00000000E+00  0.00000000E+00
  0.00000000E+00  0.00000000E+00  0.00000000E+00
  0.00000000E+00  0.00000000E+00  0.00000000E+00
  0.00000000E+00  0.00000000E+00  0.00000000E+00
  0.00000000E+00  0.00000000E+00  0.00000000E+00
  0.00000000E+00  0.00000000E+00  0.00000000E+00
  0.00000000E+00  0.00000000E+00  0.00000000E+00
  0.00000000E+00  0.00000000E+00  0.00000000E+00
  0.00000000E+00  0.00000000E+00  0.00000000E+00
  0.00000000E+00  0.00000000E+00  0.00000000E+00
  0.00000000E+00  0.00000000E+00  0.00000000E+00
  0.00000000E+00  0.00000000E+00  0.00000000E+00
  0.00000000E+00  0.00000000E+00  0.00000000E+00
  0.00000000E+00  0.00000000E+00  0.00000000E+00
  0.00000000E+00  0.00000000E+00  0.00000000E+00
  0.00000000E+00  0.00000000E+00  0.00000000E+00
  0.00000000E+00  0.00000000E+00  0.00000000E+00
  0.00000000E+00  0.00000000E+00  0.00000000E+00
  0.00000000E+00  0.00000000E+00  0.00000000E+00
  0.00000000E+00  0.00000000E+00  0.00000000E+00
  0.00000000E+00  0.00000000E+00  0.00000000E+00
  0.00000000E+00  0.00000000E+00  0.00000000E+00
  0.00000000E+00  0.00000000E+00  0.00000000E+00
  0.00000000E+00  0.00000000E+00  0.00000000E+00
  0.00000000E+00  0.00000000E+00  0.00000000E+00
  0.00000000E+00  0.00000000E+00  0.00000000E+00
  0.00000000E+00  0.00000000E+00  0.00000000E+00
  0.00000000E+00  0.00000000E+00  0.00000000E+00
  0.00000000E+00  0.00000000E+00  0.00000000E+00
  0.00000000E+00  0.00000000E+00  0.00000000E+00
  0.00000000E+00  0.00000000E+00  0.00000000E+00
  0.00000000E+00  0.00000000E+00  0.00000000E+00
  0.00000000E+00  0.00000000E+00  0.00000000E+00
  0.00000000E+00  0.00000000E+00  0.00000000E+00
  0.00000000E+00  0.00000000E+00  0.00000000E+00
  0.00000000E+00  0.00000000E+00  0.00000000E+00
  0.00000000E+00  0.00000000E+00  0.00000000E+00
  0.00000000E+00  0.00000000E+00  0.00000000E+00
  0.00000000E+00  0.00000000E+00  0.00000000E+00
  0.00000000E+00  0.00000000E+00  0.00000000E+00
  0.00000000E+00  0.00000000E+00  0.00000000E+00
  0.00000000E+00  0.00000000E+00  0.00000000E+00
  0.00000000E+00  0.00000000E+00  0.00000000E+00
  0.00000000E+00  0.00000000E+00  0.00000000E+00
  0.00000000E+00  0.00000000E+00  0.00000000E+00
  0.00000000E+00  0.00000000E+00  0.00000000E+00
  0.00000000E+00  0.00000000E+00  0.00000000E+00
  0.00000000E+00  0.00000000E+00  0.00000000E+00
  0.00000000E+00  0.00000000E+00  0.00000000E+00
  0.00000000E+00  0.00000000E+00  0.00000000E+00
  0.00000000E+00  0.00000000E+00  0.00000000E+00
  0.00000000E+00  0.00000000E+00  0.00000000E+00
  0.00000000E+00  0.00000000E+00  0.00000000E+00
  0.00000000E+00  0.00000000E+00  0.00000000E+00
  0.00000000E+00  0.00000000E+00  0.00000000E+00
  0.00000000E+00  0.00000000E+00  0.00000000E+00
  0.00000000E+00  0.00000000E+00  0.00000000E+00
  0.00000000E+00  0.00000000E+00  0.00000000E+00
  0.00000000E+00  0.00000000E+00  0.00000000E+00
  0.00000000E+00  0.00000000E+00  0.00000000E+00
  0.00000000E+00  0.00000000E+00  0.00000000E+00
  0.00000000E+00  0.00000000E+00  0.00000000E+00
  0.00000000E+00  0.00000000E+00  0.00000000E+00
  0.00000000E+00  0.00000000E+00  0.00000000E+00
  0.00000000E+00  0.00000000E+00  0.00000000E+00
  0.00000000E+00  0.00000000E+00  0.00000000E+00
  0.00000000E+00  0.00000000E+00  0.00000000E+00
  0.00000000E+00  0.00000000E+00  0.00000000E+00
  0.00000000E+00  0.00000000E+00  0.00000000E+00
  0.00000000E+00  0.00000000E+00  0.00000000E+00
  0.00000000E+00  0.00000000E+00  0.00000000E+00
  0.00000000E+00  0.00000000E+00  0.00000000E+00
  0.00000000E+00  0.00000000E+00  0.00000000E+00
  0.00000000E+00  0.00000000E+00  0.00000000E+00
  0.00000000E+00  0.00000000E+00  0.00000000E+00
  0.00000000E+00  0.00000000E+00  0.00000000E+00
  0.00000000E+00  0.00000000E+00  0.00000000E+00
  0.00000000E+00  0.00000000E+00  0.00000000E+00
  0.00000000E+00  0.00000000E+00  0.00000000E+00
  0.00000000E+00  0.00000000E+00  0.00000000E+00
  0.00000000E+00  0.00000000E+00  0.00000000E+00
  0.00000000E+00  0.00000000E+00  0.00000000E+00
  0.00000000E+00  0.00000000E+00  0.00000000E+00
  0.00000000E+00  0.00000000E+00  0.00000000E+00
  0.00000000E+00  0.00000000E+00  0.00000000E+00
  0.00000000E+00  0.00000000E+00  0.00000000E+00
  0.00000000E+00  0.00000000E+00  0.00000000E+00
  0.00000000E+00  0.00000000E+00  0.00000000E+00
  0.00000000E+00  0.00000000E+00  0.00000000E+00
  0.00000000E+00  0.00000000E+00  0.00000000E+00
  0.00000000E+00  0.00000000E+00  0.00000000E+00
  0.00000000E+00  0.00000000E+00  0.00000000E+00
  0.00000000E+00  0.00000000E+00  0.00000000E+00
  0.00000000E+00  0.00000000E+00  0.00000000E+00
  0.00000000E+00  0.00000000E+00  0.00000000E+00
  0.00000000E+00  0.00000000E+00  0.00000000E+00
  0.00000000E+00  0.00000000E+00  0.00000000E+00
  0.00000000E+00  0.00000000E+00  0.00000000E+00
  0.00000000E+00  0.00000000E+00  0.00000000E+00
  0.00000000E+00  0.00000000E+00  0.00000000E+00
  0.00000000E+00  0.00000000E+00  0.00000000E+00
  0.00000000E+00  0.00000000E+00  0.00000000E+00
  0.00000000E+00  0.00000000E+00  0.00000000E+00
  0.00000000E+00  0.00000000E+00  0.00000000E+00
  0.00000000E+00  0.00000000E+00  0.00000000E+00
  0.00000000E+00  0.00000000E+00  0.00000000E+00
  0.00000000E+00  0.00000000E+00  0.00000000E+00
  0.00000000E+00  0.00000000E+00  0.00000000E+00
  0.00000000E+00  0.00000000E+00  0.00000000E+00
  0.00000000E+00  0.00000000E+00  0.00000000E+00
  0.00000000E+00  0.00000000E+00  0.00000000E+00
  0.00000000E+00  0.00000000E+00  0.00000000E+00
  0.00000000E+00  0.00000000E+00  0.00000000E+00
  0.00000000E+00  0.00000000E+00  0.00000000E+00
  0.00000000E+00  0.00000000E+00  0.00000000E+00
  0.00000000E+00  0.00000000E+00  0.00000000E+00
  0.00000000E+00  0.00000000E+00  0.00000000E+00
  0.00000000E+00  0.00000000E+00  0.00000000E+00
  0.00000000E+00  0.00000000E+00  0.00000000E+00
  0.00000000E+00  0.00000000E+00  0.00000000E+00
  0.00000000E+00  0.00000000E+00  0.00000000E+00
  0.00000000E+00  0.00000000E+00  0.00000000E+00
  0.00000000E+00  0.00000000E+00  0.00000000E+00
  0.00000000E+00  0.00000000E+00  0.00000000E+00
  0.00000000E+00  0.00000000E+00  0.00000000E+00
  0.00000000E+00  0.00000000E+00  0.00000000E+00
  0.00000000E+00  0.00000000E+00  0.00000000E+00
  0.00000000E+00  0.00000000E+00  0.00000000E+00
  0.00000000E+00  0.00000000E+00  0.00000000E+00
  0.00000000E+00  0.00000000E+00  0.00000000E+00
  0.00000000E+00  0.00000000E+00  0.00000000E+00
  0.00000000E+00  0.00000000E+00  0.00000000E+00
  0.00000000E+00  0.00000000E+00  0.00000000E+00
  0.00000000E+00  0.00000000E+00  0.00000000E+00
  0.00000000E+00  0.00000000E+00  0.00000000E+00
  0.00000000E+00  0.00000000E+00  0.00000000E+00
  0.00000000E+00  0.00000000E+00  0.00000000E+00
  0.00000000E+00  0.00000000E+00  0.00000000E+00
  0.00000000E+00  0.00000000E+00  0.00000000E+00
  0.00000000E+00  0.00000000E+00  0.00000000E+00
  0.00000000E+00  0.00000000E+00  0.00000000E+00
  0.00000000E+00  0.00000000E+00  0.00000000E+00
  0.00000000E+00  0.00000000E+00  0.00000000E+00
  0.00000000E+00  0.00000000E+00  0.00000000E+00
  0.00000000E+00  0.00000000E+00  0.00000000E+00
  0.00000000E+00  0.00000000E+00  0.00000000E+00
  0.00000000E+00  0.00000000E+00  0.00000000E+00
  0.00000000E+00  0.00000000E+00  0.00000000E+00
  0.00000000E+00  0.00000000E+00  0.00000000E+00
  0.00000000E+00  0.00000000E+00  0.00000000E+00
  0.00000000E+00  0.00000000E+00  0.00000000E+00
  0.00000000E+00  0.00000000E+00  0.00000000E+00
  0.00000000E+00  0.00000000E+00  0.00000000E+00
  0.00000000E+00  0.00000000E+00  0.00000000E+00
  0.00000000E+00  0.00000000E+00  0.00000000E+00
  0.00000000E+00  0.00000000E+00  0.00000000E+00
  0.00000000E+00  0.00000000E+00  0.00000000E+00
  0.00000000E+00  0.00000000E+00  0.00000000E+00
  0.00000000E+00  0.00000000E+00  0.00000000E+00
  0.00000000E+00  0.00000000E+00  0.00000000E+00
  0.00000000E+00  0.00000000E+00  0.00000000E+00
  0.00000000E+00  0.00000000E+00  0.00000000E+00
  0.00000000E+00  0.00000000E+00  0.00000000E+00
  0.00000000E+00  0.00000000E+00  0.00000000E+00
  0.00000000E+00  0.00000000E+00  0.00000000E+00
  0.00000000E+00  0.00000000E+00  0.00000000E+00
  0.00000000E+00  0.00000000E+00  0.00000000E+00
  0.00000000E+00  0.00000000E+00  0.00000000E+00
  0.00000000E+00  0.00000000E+00  0.00000000E+00
  0.00000000E+00  0.00000000E+00  0.00000000E+00
  0.00000000E+00  0.00000000E+00  0.00000000E+00
  0.00000000E+00  0.00000000E+00  0.00000000E+00
  0.00000000E+00  0.00000000E+00  0.00000000E+00
  0.00000000E+00  0.00000000E+00  0.00000000E+00
  0.00000000E+00  0.00000000E+00  0.00000000E+00
  0.00000000E+00  0.00000000E+00  0.00000000E+00
  0.00000000E+00  0.00000000E+00  0.00000000E+00
  0.00000000E+00  0.00000000E+00  0.00000000E+00
  0.00000000E+00  0.00000000E+00  0.00000000E+00
