generated by phonopy                    
    1.000000000000000     
    14.1786092000000004    0.0000000000000000    0.0000000000000000
     0.0000000000000000   14.1786092000000004    0.0000000000000000
     0.0000000000000000    0.0000000000000000   14.1786092000000004
   N    C 
     1   510
Direct
     0.9965440726894552    0.9967097727876439    0.9967101096342630
     0.2486540823575102    0.0006726946902163    0.0006721843232172
     0.4998529565682089    0.0000174698989536    0.0000175397569579
     0.7500818654340415    0.9999822632470006    0.9999826228817216
     0.0004907985536686    0.2497804719791304    0.9998024041101381
     0.2505130313548587    0.2507671946237328    0.0000768320551076
     0.4999359548254149    0.2499580612864659    0.9999851809372080
     0.7502683100605848    0.2497596856233268    0.0000227914510339
     0.0000068652852188    0.5000111333941183    0.9999351079493941
     0.2500193183249519    0.5000487908922759    0.9999594845074370
     0.5001115431802337    0.5000827649838610    0.9999902097104315
     0.7499984314646626    0.4999950822355428    0.9999588908900825
     0.0000060353513824    0.7500027101944355    0.0000785767116538
     0.2497903640301669    0.7502482624921007    0.0001637916667893
     0.4999416082168085    0.7500575490591599    0.0000215611434734
     0.7499469710858293    0.7499445291975761    0.9999462173682321
     0.0004893239743851    0.9998023219354802    0.2497825646298779
     0.2505126969008147    0.0000774361930455    0.2507674639024600
     0.4999358427773534    0.9999846061476882    0.2499584410579482
     0.7502676929353195    0.0000224875101072    0.2497602464549062
     0.0001482298983392    0.2504416509470584    0.2504421858250149
     0.2497987549778566    0.2497532801805729    0.2497532881092209
     0.4999455654553996    0.2499478263232555    0.2499475634954446
     0.7499267117292464    0.2499849125560342    0.2499848468446824
     0.0000191418624572    0.4999555877563884    0.2499606398361590
     0.2500284730383834    0.4999601975347491    0.2499786605185534
     0.5000099737718753    0.4999360547060511    0.2499722631216956
     0.7499955363158003    0.4999982628166922    0.2499703012934645
     0.0001151688128970    0.7500312499877081    0.2499814612100726
     0.2500529697994375    0.7497622458039421    0.2501116290452541
     0.5000760163047505    0.7499681058790076    0.2500059555032645
     0.7500792530640168    0.7500338755011628    0.2499548283383159
     0.0000065737737969    0.9999349786104543    0.5000116276696700
     0.2500195704433056    0.9999597880920276    0.5000489483587337
     0.5001116501957055    0.9999906538986466    0.5000826326863972
     0.7499981019548956    0.9999593635682135    0.4999951258262001
     0.0000190084023049    0.2499609510768470    0.4999557543883772
     0.2500287663724576    0.2499792282172954    0.4999600104271591
     0.5000098868696710    0.2499727436726707    0.4999355779068164
     0.7499954597098524    0.2499704625092213    0.4999983580296204
     0.0000041528972774    0.5000300800634682    0.5000302376105700
     0.2500335820594525    0.4999629222796144    0.4999627481980558
     0.5000143376445056    0.4999784506966394    0.4999782003855262
     0.7500011779926059    0.4999727333297254    0.4999727916083259
     0.0000000298665904    0.7499171793440826    0.5000865745499806
     0.2500302234385804    0.7499509778325779    0.5001366981159556
     0.5000139595281834    0.7499899101935107    0.5000240593781069
     0.7500131237636180    0.7499868886243578    0.4999641081477243
     0.0000060996234226    0.0000782650357444    0.7500022773305444
     0.2497905763415744    0.0001641495999955    0.7502475366219420
     0.4999421007532688    0.0000217743753288    0.7500572946164712
     0.7499466731112350    0.9999462058691444    0.7499445747641065
     0.0001140674939798    0.2499822988653859    0.7500304289267247
     0.2500534526226076    0.2501115207482678    0.7497618967140347
     0.5000766234179448    0.2500059752903791    0.7499678754837521
     0.7500796569417083    0.2499544889831346    0.7500342339578859
     0.9999998461660511    0.5000882281948712    0.7499143982381153
     0.2500303865306288    0.5001371307650487    0.7499509797445200
     0.5000140305719070    0.5000242019841042    0.7499896304860152
     0.7500127970955596    0.4999638273893404    0.7499872101786390
     0.9999376042533176    0.7500035013700854    0.7500033014264482
     0.2499409032967951    0.7501254494103941    0.7501252020943100
     0.4999339617363506    0.7500502535662100    0.7500500204461980
     0.7499295319904741    0.7499638287912672    0.7499636626438877
     0.3116931048496452    0.0625309356581164    0.0625307470500615
     0.5624225061366546    0.0624728587838378    0.0624729336425867
     0.8128141076185404    0.0624614837274380    0.0624621639790539
     0.0625120111210903    0.3122933723675224    0.0623481230474107
     0.3128450746800568    0.3129073540881116    0.0622576619500871
     0.5624864285344978    0.3124230554697339    0.0624467914765047
     0.8122916095780889    0.3127334203921729    0.0624574781691334
     0.0624879890937777    0.5624917152154820    0.0624648306458424
     0.3124893871218298    0.5625193972573231    0.0624780687727121
     0.5625754640034818    0.5625069002440438    0.0624736192042235
     0.8124949005169450    0.5624821762938100    0.0624586263529972
     0.0624698572555894    0.8126751477955945    0.0626219299219508
     0.3128022377518866    0.8120960841813276    0.0627514211681384
     0.5624534321633684    0.8125387824820357    0.0625013472400782
     0.8124569104504095    0.8123867840005935    0.0624483204208051
     0.0625114492560348    0.0623481697071922    0.3122946734152195
     0.3128446297645476    0.0622581915862384    0.3129074611283695
     0.5624862998223823    0.0624471327106183    0.3124229984820774
     0.8122908420971338    0.0624572293357537    0.3127342793704099
     0.0625204436881417    0.3126762709190642    0.3126764712051087
     0.3123598671245142    0.3123208318701364    0.3123204483695808
     0.5624504774554165    0.3124432227685931    0.3124428778322393
     0.8125026593519009    0.3124524613788660    0.3124527141257032
     0.0624985776255532    0.5624337992586514    0.3124808586155787
     0.3125340922453493    0.5624123876243762    0.3125093410607779
     0.5625141078957319    0.5624581566643981    0.3124684716436418
     0.8124891902462537    0.5624811461299907    0.3124616257869053
     0.0626734973119005    0.8115935089350865    0.3133714824570750
     0.3125095074932860    0.8124259852672011    0.3125593401312762
     0.5625670718200850    0.8124672439685697    0.3124848132721784
     0.8126198033615261    0.8125592619442239    0.3123553361352297
     0.0624879044045398    0.0624648084336464    0.5624917894427264
     0.3124895850278316    0.0624783992904533    0.5625190624945556
     0.5625743209877484    0.0624738222012814    0.5625066323687596
     0.8124948694175389    0.0624587552175687    0.5624823115887504
     0.0624987482669913    0.3124811101627207    0.5624339001929008
     0.3125343198266793    0.3125097711269353    0.5624122172839287
     0.5625144133923551    0.3124687712141956    0.5624580619969974
     0.8124892382477218    0.3124614176246082    0.5624812238832960
     0.0625055014132599    0.5625191372643407    0.5625191456426791
     0.3125084358915526    0.5624998372299864    0.5624998556420260
     0.5624943868186633    0.5624838451302810    0.5624837522665544
     0.8124837471837849    0.5624666962107695    0.5624669851032296
     0.0624865699225014    0.8124701825494232    0.5625666877453654
     0.3125016464701444    0.8124821501239154    0.5626043967063057
     0.5624812510183306    0.8124941789008582    0.5625108331459350
     0.8124645256414230    0.8124605832501827    0.5624916073623918
     0.0624702622653966    0.0626217313428306    0.8126749627058031
     0.3128015563440411    0.0627527277137221    0.8120953365872328
     0.5624536935254824    0.0625014144296295    0.8125388436804281
     0.8124569823326850    0.0624480216537417    0.8123873866130956
     0.0626737942000519    0.3133711108623711    0.8115934919261619
     0.3125099018072078    0.3125591506219074    0.8124256430080624
     0.5625675903652003    0.3124846289275861    0.8124671494791538
     0.8126203240027013    0.3123547456041972    0.8125596048959814
     0.0624868102637474    0.5625663940519803    0.8124704772417419
     0.3125015623986870    0.5626046795597087    0.8124820630918036
     0.5624811865021143    0.5625109412763186    0.8124941281934872
     0.8124648016631257    0.5624911754977560    0.8124608403237333
     0.0624310939801339    0.8125230527673584    0.8125229296009756
     0.3122508157902311    0.8127245429408290    0.8127243247116199
     0.5624170795107271    0.8125252899360710    0.8125252367371483
     0.8124241474755010    0.8124316506931989    0.8124317286263559
     0.1293229469704862    0.1317982912846735    0.9931050742002817
     0.3746761248032077    0.1249943198446310    0.0000262120451849
     0.6250075823123288    0.1249633113364256    0.9999898191611032
     0.8760377007797316    0.1241816477099939    0.0004732881757995
     0.1250143191142107    0.3750391682152485    0.9998706587109640
     0.3752707460930461    0.3752911759014545    0.9999840679845478
     0.6250691596204642    0.3749074298488652    0.9999868840358216
     0.8750561104901330    0.3749954370549026    0.9998901851693033
     0.1249986022025965    0.6250413990945877    0.0000099256916212
     0.3749650882817194    0.6250794202056079    0.0000246223275735
     0.6250055973018447    0.6250280542141919    0.9999815008132296
     0.8749940908086250    0.6249919906534930    0.9999798297401924
     0.1241906274943049    0.8759990412407921    0.0009143399206188
     0.3747124457713895    0.8751362619585160    0.0001301217757686
     0.6249694600722332    0.8750223691578796    0.9999918036200910
     0.8747784568848432    0.8746639650065657    0.9998342843602741
     0.1248752064480717    0.1244729343835450    0.2496297294604634
     0.3747852407616680    0.1248909355731298    0.2499071539561175
     0.6250070807675785    0.1249582557791020    0.2499427919158532
     0.8744434970586183    0.1247838690596102    0.2505681303042041
     0.1250398825613922    0.3749249631049563    0.2498864162080292
     0.3749344902669448    0.3748983240585415    0.2499219710984222
     0.6249643729333886    0.3749712885048219    0.2499689774436783
     0.8749962399980188    0.3750289333092016    0.2499604663212939
     0.1250200873554788    0.6249329593605091    0.2500369216591007
     0.3750691517503472    0.6249023211778968    0.2500191833122855
     0.6250473577690585    0.6249937489635055    0.2499793313913181
     0.8750067367177469    0.6249786698768068    0.2499745943239348
     0.1246631936203583    0.8734491609167373    0.2514653376397605
     0.3750340093251794    0.8749509626139963    0.2500347188687315
     0.6250537871883914    0.8750072463596974    0.2499394047211373
     0.8752754723157902    0.8751030144203944    0.2498026786869974
     0.1250215714143536    0.1249558734583824    0.4999776398971074
     0.3750445579141641    0.1249679406722666    0.5000101381321339
     0.6249928898676212    0.1249614310982492    0.5000081524275083
     0.8750083587223823    0.1249451407315409    0.4999787014302972
     0.1250209234714958    0.3749944009245214    0.4999556785090602
     0.3750199605439595    0.3749724208253468    0.4999271463522749
     0.6250100299681919    0.3749717153247353    0.4999692329956799
     0.8749929669756220    0.3749807049791003    0.4999913825359887
     0.1249922173139539    0.6248673958576781    0.5001594732752259
     0.3750226339259703    0.6249849999335736    0.5000241726456289
     0.6250069338767863    0.6249837791999170    0.4999842886794638
     0.8750000935627497    0.6249903951050731    0.4999754348348522
     0.1250163479348871    0.8749364804679409    0.5000904379177780
     0.3750437940495909    0.8749745107123617    0.5001130316189216
     0.6250334091883039    0.8749853804141999    0.4999822155925179
     0.8749832207722360    0.8749394471716804    0.5000365755134606
     0.1250198150538733    0.1251190530459537    0.7499698168023859
     0.3752632667143315    0.1249946232505974    0.7496892338432445
     0.6250379617432446    0.1249671756033115    0.7500416462593872
     0.8750678972044121    0.1249668417821880    0.7500526653649069
     0.1249671247546411    0.3755602670965236    0.7494216161266317
     0.3750300929679860    0.3750395283579271    0.7499585864556441
     0.6250540658301759    0.3749782792061163    0.7499905466318036
     0.8750538954589705    0.3749390209223176    0.7500213154417475
     0.1249843767800510    0.6251056149700498    0.7500435670368154
     0.3749865971098215    0.6250887965431803    0.7500366727578568
     0.6249702414387351    0.6249970145446704    0.7499936131315191
     0.8749588182177156    0.6249845740061368    0.7499604761026040
     0.1249008516512010    0.8751476598779639    0.7502071486172964
     0.3748524772139409    0.8750973372642114    0.7501619671086478
     0.6249312499842330    0.8749900462072339    0.7500046551796026
     0.8749154963679983    0.8749267126331365    0.7498877479355472
     0.1293208769988562    0.9931068702652803    0.1317998783028044
     0.3746756824589305    0.0000261082207006    0.1249942714312244
     0.6250074333528447    0.9999895386248836    0.1249635496465379
     0.8760372952001657    0.0004722733635426    0.1241825926778517
     0.1248753678533375    0.2496280882112611    0.1244725978719280
     0.3747854245451129    0.2499071424448622    0.1248910123171706
     0.6250071753787774    0.2499428619951747    0.1249581035648310
     0.8744444661148735    0.2505667916730597    0.1247843913313490
     0.1250214832915336    0.4999774083087722    0.1249555470956537
     0.3750442764438631    0.5000104962421067    0.1249671449613355
     0.6249927016672862    0.5000082974334937    0.1249608484067519
     0.8750085287110225    0.4999783242136327    0.1249451024023881
     0.1250193174097683    0.7499703658394926    0.1251190933949214
     0.3752628494655903    0.7496900584800710    0.1249941222259733
     0.6250375937257315    0.7500414151079710    0.1249671597335153
     0.8750678124568199    0.7500527016976070    0.1249669360018661
     0.1250140296061200    0.9998709591392139    0.3750399899672375
     0.3752707961392240    0.9999843363658560    0.3752910944084361
     0.6250689760808985    0.9999873602725941    0.3749075348584937
     0.8750554390881710    0.9998898409352106    0.3749965201214460
     0.1250400094610729    0.2498867071679208    0.3749253950964651
     0.3749341925340157    0.2499222939916656    0.3748976503890135
     0.6249644709908662    0.2499693797306074    0.3749711538168742
     0.8749962220710004    0.2499604532454910    0.3750293873012946
     0.1250208999758370    0.4999555121906252    0.3749941118826358
     0.3750200739930925    0.4999276729847779    0.3749720903340648
     0.6250097763255043    0.4999693141194723    0.3749715396256311
     0.8749929049322125    0.4999911744037321    0.3749807031504724
     0.1249672157603846    0.7494219577241712    0.3755600716308624
     0.3750297049478222    0.7499586108247059    0.3750391808805413
     0.6250542555647141    0.7499906411946519    0.3749783329739015
     0.8750535209499882    0.7500209540322303    0.3749394813811783
     0.1249985572523715    0.0000100356964556    0.6250412505009820
     0.3749654856549095    0.0000250421769498    0.6250789778541844
     0.6250056324663259    0.9999817263396924    0.6250281203208927
     0.8749939465242164    0.9999798324781288    0.6249922183066882
     0.1250202933017550    0.2500371962885709    0.6249329721873729
     0.3750695981117792    0.2500195524805736    0.6249018039756726
     0.6250477071005429    0.2499794634089687    0.6249938924975866
     0.8750068443939404    0.2499745935151651    0.6249787664173592
     0.1249922705072194    0.5001596891026303    0.6248675360305417
     0.3750229736600946    0.5000246659758786    0.6249848709538985
     0.6250071604944717    0.4999842853015107    0.6249838167886869
     0.8750001291292293    0.4999752339767743    0.6249907156830299
     0.1249844188021529    0.7500434046196184    0.6251055359536759
     0.3749866434068084    0.7500369303082485    0.6250887217651753
     0.6249700780152999    0.7499936140350956    0.6249970710946120
     0.8749587591988316    0.7499605024814511    0.6249848904998169
     0.1241894996036931    0.0009149677215852    0.8759993049398893
     0.3747124637145746    0.0001306627128130    0.8751354579419784
     0.6249692769236760    0.9999916369854592    0.8750222673377559
     0.8747787803939967    0.9998337492396656    0.8746640014421299
     0.1246636774015110    0.2514648485130395    0.8734484399175623
     0.3750341004185209    0.2500344532539816    0.8749504367433171
     0.6250542869492416    0.2499392629621350    0.8750074059532380
     0.8752760673517762    0.2498016451948870    0.8751033770585009
     0.1250163276502174    0.5000904337024906    0.8749366480258284
     0.3750437750547672    0.5001132683471757    0.8749742094837213
     0.6250329230664066    0.4999826274472209    0.8749855149962411
     0.8749837378184082    0.5000361384948233    0.8749396428427859
     0.1249008073221467    0.7502078390327507    0.8751472836966281
     0.3748522992442691    0.7501623512281690    0.8750971141086561
     0.6249317010681318    0.7500051025539778    0.8749901118795103
     0.8749155786634186    0.7498878594638960    0.8749268031254378
     0.9940731436420874    0.1308541972718364    0.1308567226019010
     0.2487377396310622    0.1244652857152525    0.1244650948218528
     0.4998744052965456    0.1249650121537253    0.1249655786747415
     0.7501208212526520    0.1249567770581066    0.1249572660730290
     0.0000622463466759    0.3749536792337255    0.1248582137022442
     0.2500329704290566    0.3749804696000795    0.1248686748584718
     0.4999905404506715    0.3749581789418922    0.1249539305657225
     0.7498368222118579    0.3751357940109550    0.1249347146649685
     0.0000044315738172    0.6249801188544966    0.1250069102529520
     0.2500123480230660    0.6249946020572015    0.1250125351922134
     0.5001212166899558    0.6249262495193367    0.1249751518727050
     0.7500237929259884    0.6250138275265881    0.1249667983048228
     0.0007399659286845    0.8757075305136208    0.1246070757623740
     0.2505398147162941    0.8741177830521704    0.1249000678092959
     0.4999169402265106    0.8750251741854609    0.1249957043688914
     0.7501716890202940    0.8750348981725647    0.1248918784860768
     0.0000620281631511    0.1248581890448229    0.3749545276927342
     0.2500329094489745    0.1248692993735803    0.3749809660814350
     0.4999906555254400    0.1249542740238933    0.3749580756626116
     0.7498366505042310    0.1249352395547492    0.3751359305485781
     0.0000299320511519    0.3751164312374812    0.3751165134078355
     0.2499887556787490    0.3748995117762473    0.3748992847563211
     0.4999816795488642    0.3749507566792090    0.3749504348275601
     0.7500007709368647    0.3749620600077570    0.3749619530151609
     0.0000170273399322    0.6249468602667645    0.3750066809109263
     0.2500488076799523    0.6248680121907934    0.3750730996504530
     0.5000303037987991    0.6249672127207552    0.3749970203729058
     0.7500229112492546    0.6249951177575368    0.3749704975257243
     0.0000624457081602    0.8748006638945024    0.3751371790104300
     0.2500379047705530    0.8748782087982458    0.3752230837030539
     0.5000701812789531    0.8749680928202086    0.3750110582278106
     0.7500976643388533    0.8750011138501018    0.3749068893647075
     0.0000042230976863    0.1250068749375751    0.6249801587039717
     0.2500126453926734    0.1250129061796348    0.6249941913902536
     0.5001217858205969    0.1249755980257695    0.6249258273173092
     0.7500239322767170    0.1249667666482001    0.6250139783166169
     0.0000171938351487    0.3750068119912952    0.6249470410855004
     0.2500493776846950    0.3750737375249574    0.6248681426695888
     0.5000305999240062    0.3749973377942292    0.6249670372827576
     0.7500232102969245    0.3749703079484971    0.6249954014738207
     0.9999844204942560    0.6250200181934983    0.6250200633773609
     0.2500126297923581    0.6250561271998188    0.6250561150147358
     0.4999946656986544    0.6250132526754183    0.6250131273575652
     0.7499802047036264    0.6249744550388387    0.6249746537631955
     0.9999865392228880    0.8749979161845415    0.6250388299792269
     0.2499731871444979    0.8750299743648727    0.6251137307001139
     0.4999681785341866    0.8750150201862176    0.6250737456792788
     0.7499572767563072    0.8749625773909990    0.6249793887403645
     0.0007405399177557    0.1246067514488936    0.8757076606403548
     0.2505405765560794    0.1249000876782260    0.8741167517910690
     0.4999172875762163    0.1249956919166001    0.8750248961593623
     0.7501719045965748    0.1248914790201092    0.8750355654691884
     0.0000627398545302    0.3751361747615080    0.8748007915466530
     0.2500379796704288    0.3752227175459855    0.8748779834162417
     0.5000703370589008    0.3750108994518117    0.8749680030843578
     0.7500974282344839    0.3749066759777983    0.8750010913635153
     0.9999866453761760    0.6250385885369835    0.8749979265413832
     0.2499731238487847    0.6251140565263611    0.8750298527350838
     0.4999680646355767    0.6250738377410844    0.8750146412810977
     0.7499574193938187    0.6249790966738867    0.8749626085556838
     0.9998015420681993    0.8748388066407214    0.8748388094844828
     0.2495918472947649    0.8753752632799148    0.8753750042454160
     0.4998977038785470    0.8750468835416665    0.8750468279586178
     0.7498799257993306    0.8749255951427793    0.8749251367743310
     0.1865035336334774    0.1871313331345200    0.0613189307726609
     0.4373216894075438    0.1874400407488366    0.0624382593654745
     0.6875996025769521    0.1874230962126710    0.0624662930610037
     0.9380771476115505    0.1872701664629255    0.0626440968180327
     0.1875018697933550    0.4374975985069883    0.0624029165460619
     0.4376659690693572    0.4376470322457233    0.0624135039156696
     0.6874505026018514    0.4375529330657640    0.0624718928208533
     0.9375367597057537    0.4374819696022194    0.0624368278169070
     0.1874417411005712    0.6875706086412972    0.0625472096717474
     0.4376386424829305    0.6873858148074056    0.0625487610208068
     0.6875046029280127    0.6875094946737769    0.0624580349400795
     0.9375172008831683    0.6875097413065562    0.0624785383324376
     0.1864333477199676    0.9380259823494316    0.0640399490623371
     0.4372917173569680    0.9375813471109959    0.0625540239941579
     0.6875682244810429    0.9375210854359513    0.0624549929543746
     0.9385214701903332    0.9382187489012901    0.0606557190279246
     0.1873235253660016    0.1871724635528133    0.3122468371112014
     0.4374118277767935    0.1874299630489147    0.3123700135156715
     0.6874527485242707    0.1874760652057525    0.3124992185373344
     0.9375281512591277    0.1874611205636721    0.3125624612157969
     0.1875087779772205    0.4374484037056540    0.3124222816981135
     0.4374856856471156    0.4374290813571990    0.3124428885237582
     0.6875042561957303    0.4374766019265376    0.3124545517324658
     0.9375086351289837    0.4375216664493685    0.3124941778537345
     0.1875642485558472    0.6872923106748845    0.3126716809714943
     0.4375570710912491    0.6874657173313955    0.3125111785250957
     0.6875659205261637    0.6875173440394847    0.3124576122128239
     0.9375136119186531    0.6875266453051520    0.3123830402684012
     0.1875288573997863    0.9371963354497783    0.3127998681164570
     0.4375666387188985    0.9374452686782000    0.3125573868240550
     0.6876676458804969    0.9374895746780434    0.3123146560803324
     0.9377696504865426    0.9375810871853694    0.3123433683436083
     0.1875126422172520    0.1874978309769181    0.5624570120163181
     0.4375696803611422    0.1875038595813743    0.5624407662611138
     0.6875276897669218    0.1874822407109443    0.5624924664255659
     0.9375100763601563    0.1874767551648885    0.5624591171873691
     0.1875405626516023    0.4375578067670586    0.5624166909484108
     0.4375267689443224    0.4375025757457655    0.5624551232007999
     0.6875182076796604    0.4374815122020088    0.5624740488250064
     0.9374935831803792    0.4374865879532640    0.5624757738402125
     0.1875199029535143    0.6874970960736502    0.5625976943564135
     0.4375083526253369    0.6875195374123350    0.5625338079666852
     0.6874994037569704    0.6874984356537729    0.5624697664258707
     0.9374864669436670    0.6874873359398622    0.5625129534548527
     0.1875037391255024    0.9374899269194751    0.5625643616441721
     0.4375174275416592    0.9374960697217422    0.5625774167082858
     0.6875058096183733    0.9374825139803212    0.5624915528168509
     0.9375002262864688    0.9374813830430710    0.5625083463055819
     0.1875656528492435    0.1878207899101580    0.8121444988243066
     0.4375667728134640    0.1875615052675574    0.8124065730516098
     0.6876012565380348    0.1874632921700564    0.8125458108322996
     0.9376705427793108    0.1870612879346258    0.8129204597999654
     0.1875611151493470    0.4377112926725471    0.8123145462425583
     0.4375445665744999    0.4375529122316511    0.8124613964940020
     0.6875585588086459    0.4374587274038154    0.8124912819870306
     0.9375174305756124    0.4375727097693906    0.8124641719893715
     0.1874560398807218    0.6876513517457148    0.8125964753139873
     0.4374305546095127    0.6876051467472007    0.8125481567974476
     0.6874534413931211    0.6875020461536493    0.8124786897985987
     0.9374592705402957    0.6874753045757118    0.8124549167184758
     0.1868699871147661    0.9378084739248628    0.8131829342187200
     0.4373449421350799    0.9375869923914646    0.8126534001217727
     0.6874352241865299    0.9374804225855654    0.8124645897402165
     0.9374214835057098    0.9374300990296118    0.8123050074348863
     0.1865034449771427    0.0613204629933614    0.1871323781892311
     0.4373209632888166    0.0624363245996016    0.1874408050192740
     0.6875992717521049    0.0624662621363737    0.1874235496272001
     0.9380782411518668    0.0626441552242333    0.1872742094713304
     0.1873235965935825    0.3122460402780902    0.1871721791207218
     0.4374116788594929    0.3123701974975291    0.1874297208304340
     0.6874527746761987    0.3124992963490344    0.1874757552906269
     0.9375285749718988    0.3125616914721406    0.1874615365540789
     0.1875124055631812    0.5624571575173265    0.1874977159853309
     0.4375693026401334    0.5624410475420552    0.1875034100329449
     0.6875273721191160    0.5624923879609686    0.1874820661193649
     0.9375101878276216    0.5624591060907309    0.1874767317402810
     0.1875649872765585    0.8121447496166050    0.1878215055866045
     0.4375661366772897    0.8124070962208074    0.1875614347047951
     0.6876009541904321    0.8125453692030320    0.1874633440263731
     0.9376700407534974    0.8129203596063432    0.1870619337930396
     0.1875018655020308    0.0624033207853313    0.4374981733990851
     0.4376659747178156    0.0624140084634742    0.4376468868739110
     0.6874494295045185    0.0624716320769825    0.4375539879057910
     0.9375355075451512    0.0624383338954559    0.4374836268173193
     0.1875087953583305    0.3124228007441432    0.4374485900258378
     0.4374845095852199    0.3124428898393317    0.4374277854445094
     0.6875043674665383    0.3124546637019705    0.4374765210438084
     0.9375085444090393    0.3124943423242142    0.4375219841169971
     0.1875404599022720    0.5624166133135003    0.4375577081392918
     0.4375266400836199    0.5624553434266668    0.4375023938859390
     0.6875179358642077    0.5624739485942412    0.4374815779460428
     0.9374934581028747    0.5624756442848013    0.4374866713504533
     0.1875610936151273    0.8123144664953288    0.4377113599141937
     0.4375443400044468    0.8124615323809454    0.4375529067670779
     0.6875611949177506    0.8124910917811580    0.4374579436007633
     0.9375167720361636    0.8124638538146074    0.4375735421846119
     0.1874418911495591    0.0625472332420846    0.6875700369153421
     0.4376393002931195    0.0625489067514574    0.6873852857856914
     0.6875047926091075    0.0624580848377503    0.6875096329799618
     0.9375170677874577    0.0624783954505511    0.6875097606462455
     0.1875643144774861    0.3126721099030867    0.6872925241040893
     0.4375574162316520    0.3125112677376793    0.6874656391893368
     0.6875665188534766    0.3124576461882212    0.6875176305761430
     0.9375138609688544    0.3123828344232720    0.6875269380179371
     0.1875199923732637    0.5625977791732669    0.6874971948833172
     0.4375084503741821    0.5625340036215734    0.6875193225737446
     0.6874998115545150    0.5624696126431594    0.6874984899987200
     0.9374867227519678    0.5625125080206264    0.6874876400800795
     0.1874560428626123    0.8125964964428143    0.6876509097078229
     0.4374306515096331    0.8125484273820094    0.6876049357360320
     0.6874532984931101    0.8124785785415281    0.6875020418161544
     0.9374590803198039    0.8124551094939578    0.6874756400192952
     0.1864344320305661    0.0640400553938981    0.9380245456243796
     0.4372919329279663    0.0625539814236897    0.9375811865344806
     0.6875684698635969    0.0624545051667393    0.9375214222748841
     0.9385221366015374    0.0606555408836091    0.9382191623610187
     0.1875292056690208    0.3127989341678159    0.9371959872272813
     0.4375669208139091    0.3125574056758714    0.9374449967229564
     0.6876682257901471    0.3123143121170828    0.9374897146737527
     0.9377706493978927    0.3123418709133108    0.9375814217980063
     0.1875036274860197    0.5625643641311556    0.9374898509472964
     0.4375172864736709    0.5625776423638236    0.9374957090840659
     0.6875060906601226    0.5624915417744004    0.9374823030812618
     0.9375004741323432    0.5625080082407471    0.9374815875833643
     0.1868696529335099    0.8131837055048585    0.9378084354914736
     0.4373446878320504    0.8126537834916681    0.9375867944334341
     0.6874367230958135    0.8124658782875543    0.9374804788455678
     0.9374213146121566    0.8123053440212619    0.9374305012615536
     0.0626485568026979    0.1871149972084157    0.1871161030345302
     0.3118645836543223    0.1870961554107256    0.1870959549172143
     0.5624501408858007    0.1874471508787036    0.1874471680151939
     0.8124378473560766    0.1875179689427445    0.1875185491981171
     0.0624914002634770    0.4374477607892958    0.1874332045072285
     0.3124577671379526    0.4374699524489013    0.1874368932269127
     0.5624821826849039    0.4374666190821628    0.1874734417225702
     0.8124555451869619    0.4375313809315490    0.1874721801032846
     0.0625100628335584    0.6874902637640108    0.1875109174384668
     0.3125908455994317    0.6873698568851717    0.1875772552265877
     0.5625652295035125    0.6874982703977226    0.1875038850967609
     0.8125523530603429    0.6875368867813716    0.1874672285436265
     0.0638136165954429    0.9369052118744169    0.1881330652874707
     0.3124367474641841    0.9373994538615564    0.1876065209392570
     0.5624696018361326    0.9375069799517336    0.1874761449762586
     0.8131661516589664    0.9375454502266974    0.1869795940361626
     0.0624913166398475    0.1874333468280112    0.4374481723856833
     0.3124584434510941    0.1874376014187161    0.4374702584994203
     0.5624823761210838    0.1874739166748118    0.4374663681602126
     0.8124554823278510    0.1874723473398119    0.4375315796650742
     0.0624899845296364    0.4375633567852189    0.4375634180681277
     0.3125028984416081    0.4374404193445874    0.4374400696181159
     0.5624919553342679    0.4374736251313581    0.4374735831380131
     0.8124866311666781    0.4374784831514141    0.4374785894234563
     0.0625451693588355    0.6872029713852746    0.4377938762295291
     0.3125213945130616    0.6874620182354803    0.4375680637889160
     0.5625179627838086    0.6874950063201640    0.4375051309308176
     0.8125167050604788    0.6875157717615201    0.4374564618564482
     0.0625176605775437    0.9374350237496745    0.4375563162567376
     0.3125839184928042    0.9374264889677135    0.4376483764566994
     0.5625685047859467    0.9374720348903318    0.4374875128460541
     0.8125396613046592    0.9374735409404560    0.4374985047030222
     0.0625101794878545    0.1875106310165786    0.6874902809640562
     0.3125914771962376    0.1875776748497195    0.6873690985054686
     0.5625656898950993    0.1875039912863049    0.6874982727567477
     0.8125525627704444    0.1874670419112751    0.6875369389377227
     0.0625453752464733    0.4377938639934106    0.6872031463621748
     0.3125220022012092    0.4375687926950442    0.6874618217639168
     0.5625181125076891    0.4375050790817153    0.6874948427255565
     0.8125168612052611    0.4374560123893971    0.6875162483549343
     0.0624634286685384    0.6875480159079366    0.6875479936024346
     0.3124634630596393    0.6875917037933241    0.6875915630228938
     0.5624512645721966    0.6875292854796786    0.6875291749581770
     0.8124471888451970    0.6874848144277745    0.6874848930018685
     0.0624464300651713    0.9375562233278983    0.6875751415976638
     0.3123140565001825    0.9375662519119664    0.6876903905044031
     0.5624461201054737    0.9375156416930746    0.6875656491319706
     0.8124426173680779    0.9374664722676431    0.6874539696138529
     0.0638152914107625    0.1881317578553002    0.9369046818603265
     0.3124371359899911    0.1876060515431875    0.9373990342194122
     0.5624698413681096    0.1874759994808271    0.9375069235942380
     0.8131668298780422    0.1869786668018188    0.9375462126691080
     0.0625179173070833    0.4375555286986897    0.9374352241356545
     0.3125840079146256    0.4376482016961513    0.9374261253183190
     0.5625685430089638    0.4374875908361459    0.9374717241804252
     0.8125401200652591    0.4374979096309966    0.9374736944793830
     0.0624464834370690    0.6875754730438367    0.9375559575184689
     0.3123136526606510    0.6876909633560651    0.9375660221621300
     0.5624460325450601    0.6875657731599748    0.9375154618089780
     0.8124425869675342    0.6874535455817091    0.9374663712195916
     0.0606798848899259    0.9385536647324201    0.9385532592640239
     0.3117188224884736    0.9380209600818361    0.9380204623643409
     0.5624098881970593    0.9375453758377105    0.9375455903877402
     0.8123826045668957    0.9373951965669656    0.9373954488558032
 
  0.00000000E+00  0.00000000E+00  0.00000000E+00
  0.00000000E+00  0.00000000E+00  0.00000000E+00
  0.00000000E+00  0.00000000E+00  0.00000000E+00
  0.00000000E+00  0.00000000E+00  0.00000000E+00
  0.00000000E+00  0.00000000E+00  0.00000000E+00
  0.00000000E+00  0.00000000E+00  0.00000000E+00
  0.00000000E+00  0.00000000E+00  0.00000000E+00
  0.00000000E+00  0.00000000E+00  0.00000000E+00
  0.00000000E+00  0.00000000E+00  0.00000000E+00
  0.00000000E+00  0.00000000E+00  0.00000000E+00
  0.00000000E+00  0.00000000E+00  0.00000000E+00
  0.00000000E+00  0.00000000E+00  0.00000000E+00
  0.00000000E+00  0.00000000E+00  0.00000000E+00
  0.00000000E+00  0.00000000E+00  0.00000000E+00
  0.00000000E+00  0.00000000E+00  0.00000000E+00
  0.00000000E+00  0.00000000E+00  0.00000000E+00
  0.00000000E+00  0.00000000E+00  0.00000000E+00
  0.00000000E+00  0.00000000E+00  0.00000000E+00
  0.00000000E+00  0.00000000E+00  0.00000000E+00
  0.00000000E+00  0.00000000E+00  0.00000000E+00
  0.00000000E+00  0.00000000E+00  0.00000000E+00
  0.00000000E+00  0.00000000E+00  0.00000000E+00
  0.00000000E+00  0.00000000E+00  0.00000000E+00
  0.00000000E+00  0.00000000E+00  0.00000000E+00
  0.00000000E+00  0.00000000E+00  0.00000000E+00
  0.00000000E+00  0.00000000E+00  0.00000000E+00
  0.00000000E+00  0.00000000E+00  0.00000000E+00
  0.00000000E+00  0.00000000E+00  0.00000000E+00
  0.00000000E+00  0.00000000E+00  0.00000000E+00
  0.00000000E+00  0.00000000E+00  0.00000000E+00
  0.00000000E+00  0.00000000E+00  0.00000000E+00
  0.00000000E+00  0.00000000E+00  0.00000000E+00
  0.00000000E+00  0.00000000E+00  0.00000000E+00
  0.00000000E+00  0.00000000E+00  0.00000000E+00
  0.00000000E+00  0.00000000E+00  0.00000000E+00
  0.00000000E+00  0.00000000E+00  0.00000000E+00
  0.00000000E+00  0.00000000E+00  0.00000000E+00
  0.00000000E+00  0.00000000E+00  0.00000000E+00
  0.00000000E+00  0.00000000E+00  0.00000000E+00
  0.00000000E+00  0.00000000E+00  0.00000000E+00
  0.00000000E+00  0.00000000E+00  0.00000000E+00
  0.00000000E+00  0.00000000E+00  0.00000000E+00
  0.00000000E+00  0.00000000E+00  0.00000000E+00
  0.00000000E+00  0.00000000E+00  0.00000000E+00
  0.00000000E+00  0.00000000E+00  0.00000000E+00
  0.00000000E+00  0.00000000E+00  0.00000000E+00
  0.00000000E+00  0.00000000E+00  0.00000000E+00
  0.00000000E+00  0.00000000E+00  0.00000000E+00
  0.00000000E+00  0.00000000E+00  0.00000000E+00
  0.00000000E+00  0.00000000E+00  0.00000000E+00
  0.00000000E+00  0.00000000E+00  0.00000000E+00
  0.00000000E+00  0.00000000E+00  0.00000000E+00
  0.00000000E+00  0.00000000E+00  0.00000000E+00
  0.00000000E+00  0.00000000E+00  0.00000000E+00
  0.00000000E+00  0.00000000E+00  0.00000000E+00
  0.00000000E+00  0.00000000E+00  0.00000000E+00
  0.00000000E+00  0.00000000E+00  0.00000000E+00
  0.00000000E+00  0.00000000E+00  0.00000000E+00
  0.00000000E+00  0.00000000E+00  0.00000000E+00
  0.00000000E+00  0.00000000E+00  0.00000000E+00
  0.00000000E+00  0.00000000E+00  0.00000000E+00
  0.00000000E+00  0.00000000E+00  0.00000000E+00
  0.00000000E+00  0.00000000E+00  0.00000000E+00
  0.00000000E+00  0.00000000E+00  0.00000000E+00
  0.00000000E+00  0.00000000E+00  0.00000000E+00
  0.00000000E+00  0.00000000E+00  0.00000000E+00
  0.00000000E+00  0.00000000E+00  0.00000000E+00
  0.00000000E+00  0.00000000E+00  0.00000000E+00
  0.00000000E+00  0.00000000E+00  0.00000000E+00
  0.00000000E+00  0.00000000E+00  0.00000000E+00
  0.00000000E+00  0.00000000E+00  0.00000000E+00
  0.00000000E+00  0.00000000E+00  0.00000000E+00
  0.00000000E+00  0.00000000E+00  0.00000000E+00
  0.00000000E+00  0.00000000E+00  0.00000000E+00
  0.00000000E+00  0.00000000E+00  0.00000000E+00
  0.00000000E+00  0.00000000E+00  0.00000000E+00
  0.00000000E+00  0.00000000E+00  0.00000000E+00
  0.00000000E+00  0.00000000E+00  0.00000000E+00
  0.00000000E+00  0.00000000E+00  0.00000000E+00
  0.00000000E+00  0.00000000E+00  0.00000000E+00
  0.00000000E+00  0.00000000E+00  0.00000000E+00
  0.00000000E+00  0.00000000E+00  0.00000000E+00
  0.00000000E+00  0.00000000E+00  0.00000000E+00
  0.00000000E+00  0.00000000E+00  0.00000000E+00
  0.00000000E+00  0.00000000E+00  0.00000000E+00
  0.00000000E+00  0.00000000E+00  0.00000000E+00
  0.00000000E+00  0.00000000E+00  0.00000000E+00
  0.00000000E+00  0.00000000E+00  0.00000000E+00
  0.00000000E+00  0.00000000E+00  0.00000000E+00
  0.00000000E+00  0.00000000E+00  0.00000000E+00
  0.00000000E+00  0.00000000E+00  0.00000000E+00
  0.00000000E+00  0.00000000E+00  0.00000000E+00
  0.00000000E+00  0.00000000E+00  0.00000000E+00
  0.00000000E+00  0.00000000E+00  0.00000000E+00
  0.00000000E+00  0.00000000E+00  0.00000000E+00
  0.00000000E+00  0.00000000E+00  0.00000000E+00
  0.00000000E+00  0.00000000E+00  0.00000000E+00
  0.00000000E+00  0.00000000E+00  0.00000000E+00
  0.00000000E+00  0.00000000E+00  0.00000000E+00
  0.00000000E+00  0.00000000E+00  0.00000000E+00
  0.00000000E+00  0.00000000E+00  0.00000000E+00
  0.00000000E+00  0.00000000E+00  0.00000000E+00
  0.00000000E+00  0.00000000E+00  0.00000000E+00
  0.00000000E+00  0.00000000E+00  0.00000000E+00
  0.00000000E+00  0.00000000E+00  0.00000000E+00
  0.00000000E+00  0.00000000E+00  0.00000000E+00
  0.00000000E+00  0.00000000E+00  0.00000000E+00
  0.00000000E+00  0.00000000E+00  0.00000000E+00
  0.00000000E+00  0.00000000E+00  0.00000000E+00
  0.00000000E+00  0.00000000E+00  0.00000000E+00
  0.00000000E+00  0.00000000E+00  0.00000000E+00
  0.00000000E+00  0.00000000E+00  0.00000000E+00
  0.00000000E+00  0.00000000E+00  0.00000000E+00
  0.00000000E+00  0.00000000E+00  0.00000000E+00
  0.00000000E+00  0.00000000E+00  0.00000000E+00
  0.00000000E+00  0.00000000E+00  0.00000000E+00
  0.00000000E+00  0.00000000E+00  0.00000000E+00
  0.00000000E+00  0.00000000E+00  0.00000000E+00
  0.00000000E+00  0.00000000E+00  0.00000000E+00
  0.00000000E+00  0.00000000E+00  0.00000000E+00
  0.00000000E+00  0.00000000E+00  0.00000000E+00
  0.00000000E+00  0.00000000E+00  0.00000000E+00
  0.00000000E+00  0.00000000E+00  0.00000000E+00
  0.00000000E+00  0.00000000E+00  0.00000000E+00
  0.00000000E+00  0.00000000E+00  0.00000000E+00
  0.00000000E+00  0.00000000E+00  0.00000000E+00
  0.00000000E+00  0.00000000E+00  0.00000000E+00
  0.00000000E+00  0.00000000E+00  0.00000000E+00
  0.00000000E+00  0.00000000E+00  0.00000000E+00
  0.00000000E+00  0.00000000E+00  0.00000000E+00
  0.00000000E+00  0.00000000E+00  0.00000000E+00
  0.00000000E+00  0.00000000E+00  0.00000000E+00
  0.00000000E+00  0.00000000E+00  0.00000000E+00
  0.00000000E+00  0.00000000E+00  0.00000000E+00
  0.00000000E+00  0.00000000E+00  0.00000000E+00
  0.00000000E+00  0.00000000E+00  0.00000000E+00
  0.00000000E+00  0.00000000E+00  0.00000000E+00
  0.00000000E+00  0.00000000E+00  0.00000000E+00
  0.00000000E+00  0.00000000E+00  0.00000000E+00
  0.00000000E+00  0.00000000E+00  0.00000000E+00
  0.00000000E+00  0.00000000E+00  0.00000000E+00
  0.00000000E+00  0.00000000E+00  0.00000000E+00
  0.00000000E+00  0.00000000E+00  0.00000000E+00
  0.00000000E+00  0.00000000E+00  0.00000000E+00
  0.00000000E+00  0.00000000E+00  0.00000000E+00
  0.00000000E+00  0.00000000E+00  0.00000000E+00
  0.00000000E+00  0.00000000E+00  0.00000000E+00
  0.00000000E+00  0.00000000E+00  0.00000000E+00
  0.00000000E+00  0.00000000E+00  0.00000000E+00
  0.00000000E+00  0.00000000E+00  0.00000000E+00
  0.00000000E+00  0.00000000E+00  0.00000000E+00
  0.00000000E+00  0.00000000E+00  0.00000000E+00
  0.00000000E+00  0.00000000E+00  0.00000000E+00
  0.00000000E+00  0.00000000E+00  0.00000000E+00
  0.00000000E+00  0.00000000E+00  0.00000000E+00
  0.00000000E+00  0.00000000E+00  0.00000000E+00
  0.00000000E+00  0.00000000E+00  0.00000000E+00
  0.00000000E+00  0.00000000E+00  0.00000000E+00
  0.00000000E+00  0.00000000E+00  0.00000000E+00
  0.00000000E+00  0.00000000E+00  0.00000000E+00
  0.00000000E+00  0.00000000E+00  0.00000000E+00
  0.00000000E+00  0.00000000E+00  0.00000000E+00
  0.00000000E+00  0.00000000E+00  0.00000000E+00
  0.00000000E+00  0.00000000E+00  0.00000000E+00
  0.00000000E+00  0.00000000E+00  0.00000000E+00
  0.00000000E+00  0.00000000E+00  0.00000000E+00
  0.00000000E+00  0.00000000E+00  0.00000000E+00
  0.00000000E+00  0.00000000E+00  0.00000000E+00
  0.00000000E+00  0.00000000E+00  0.00000000E+00
  0.00000000E+00  0.00000000E+00  0.00000000E+00
  0.00000000E+00  0.00000000E+00  0.00000000E+00
  0.00000000E+00  0.00000000E+00  0.00000000E+00
  0.00000000E+00  0.00000000E+00  0.00000000E+00
  0.00000000E+00  0.00000000E+00  0.00000000E+00
  0.00000000E+00  0.00000000E+00  0.00000000E+00
  0.00000000E+00  0.00000000E+00  0.00000000E+00
  0.00000000E+00  0.00000000E+00  0.00000000E+00
  0.00000000E+00  0.00000000E+00  0.00000000E+00
  0.00000000E+00  0.00000000E+00  0.00000000E+00
  0.00000000E+00  0.00000000E+00  0.00000000E+00
  0.00000000E+00  0.00000000E+00  0.00000000E+00
  0.00000000E+00  0.00000000E+00  0.00000000E+00
  0.00000000E+00  0.00000000E+00  0.00000000E+00
  0.00000000E+00  0.00000000E+00  0.00000000E+00
  0.00000000E+00  0.00000000E+00  0.00000000E+00
  0.00000000E+00  0.00000000E+00  0.00000000E+00
  0.00000000E+00  0.00000000E+00  0.00000000E+00
  0.00000000E+00  0.00000000E+00  0.00000000E+00
  0.00000000E+00  0.00000000E+00  0.00000000E+00
  0.00000000E+00  0.00000000E+00  0.00000000E+00
  0.00000000E+00  0.00000000E+00  0.00000000E+00
  0.00000000E+00  0.00000000E+00  0.00000000E+00
  0.00000000E+00  0.00000000E+00  0.00000000E+00
  0.00000000E+00  0.00000000E+00  0.00000000E+00
  0.00000000E+00  0.00000000E+00  0.00000000E+00
  0.00000000E+00  0.00000000E+00  0.00000000E+00
  0.00000000E+00  0.00000000E+00  0.00000000E+00
  0.00000000E+00  0.00000000E+00  0.00000000E+00
  0.00000000E+00  0.00000000E+00  0.00000000E+00
  0.00000000E+00  0.00000000E+00  0.00000000E+00
  0.00000000E+00  0.00000000E+00  0.00000000E+00
  0.00000000E+00  0.00000000E+00  0.00000000E+00
  0.00000000E+00  0.00000000E+00  0.00000000E+00
  0.00000000E+00  0.00000000E+00  0.00000000E+00
  0.00000000E+00  0.00000000E+00  0.00000000E+00
  0.00000000E+00  0.00000000E+00  0.00000000E+00
  0.00000000E+00  0.00000000E+00  0.00000000E+00
  0.00000000E+00  0.00000000E+00  0.00000000E+00
  0.00000000E+00  0.00000000E+00  0.00000000E+00
  0.00000000E+00  0.00000000E+00  0.00000000E+00
  0.00000000E+00  0.00000000E+00  0.00000000E+00
  0.00000000E+00  0.00000000E+00  0.00000000E+00
  0.00000000E+00  0.00000000E+00  0.00000000E+00
  0.00000000E+00  0.00000000E+00  0.00000000E+00
  0.00000000E+00  0.00000000E+00  0.00000000E+00
  0.00000000E+00  0.00000000E+00  0.00000000E+00
  0.00000000E+00  0.00000000E+00  0.00000000E+00
  0.00000000E+00  0.00000000E+00  0.00000000E+00
  0.00000000E+00  0.00000000E+00  0.00000000E+00
  0.00000000E+00  0.00000000E+00  0.00000000E+00
  0.00000000E+00  0.00000000E+00  0.00000000E+00
  0.00000000E+00  0.00000000E+00  0.00000000E+00
  0.00000000E+00  0.00000000E+00  0.00000000E+00
  0.00000000E+00  0.00000000E+00  0.00000000E+00
  0.00000000E+00  0.00000000E+00  0.00000000E+00
  0.00000000E+00  0.00000000E+00  0.00000000E+00
  0.00000000E+00  0.00000000E+00  0.00000000E+00
  0.00000000E+00  0.00000000E+00  0.00000000E+00
  0.00000000E+00  0.00000000E+00  0.00000000E+00
  0.00000000E+00  0.00000000E+00  0.00000000E+00
  0.00000000E+00  0.00000000E+00  0.00000000E+00
  0.00000000E+00  0.00000000E+00  0.00000000E+00
  0.00000000E+00  0.00000000E+00  0.00000000E+00
  0.00000000E+00  0.00000000E+00  0.00000000E+00
  0.00000000E+00  0.00000000E+00  0.00000000E+00
  0.00000000E+00  0.00000000E+00  0.00000000E+00
  0.00000000E+00  0.00000000E+00  0.00000000E+00
  0.00000000E+00  0.00000000E+00  0.00000000E+00
  0.00000000E+00  0.00000000E+00  0.00000000E+00
  0.00000000E+00  0.00000000E+00  0.00000000E+00
  0.00000000E+00  0.00000000E+00  0.00000000E+00
  0.00000000E+00  0.00000000E+00  0.00000000E+00
  0.00000000E+00  0.00000000E+00  0.00000000E+00
  0.00000000E+00  0.00000000E+00  0.00000000E+00
  0.00000000E+00  0.00000000E+00  0.00000000E+00
  0.00000000E+00  0.00000000E+00  0.00000000E+00
  0.00000000E+00  0.00000000E+00  0.00000000E+00
  0.00000000E+00  0.00000000E+00  0.00000000E+00
  0.00000000E+00  0.00000000E+00  0.00000000E+00
  0.00000000E+00  0.00000000E+00  0.00000000E+00
  0.00000000E+00  0.00000000E+00  0.00000000E+00
  0.00000000E+00  0.00000000E+00  0.00000000E+00
  0.00000000E+00  0.00000000E+00  0.00000000E+00
  0.00000000E+00  0.00000000E+00  0.00000000E+00
  0.00000000E+00  0.00000000E+00  0.00000000E+00
  0.00000000E+00  0.00000000E+00  0.00000000E+00
  0.00000000E+00  0.00000000E+00  0.00000000E+00
  0.00000000E+00  0.00000000E+00  0.00000000E+00
  0.00000000E+00  0.00000000E+00  0.00000000E+00
  0.00000000E+00  0.00000000E+00  0.00000000E+00
  0.00000000E+00  0.00000000E+00  0.00000000E+00
  0.00000000E+00  0.00000000E+00  0.00000000E+00
  0.00000000E+00  0.00000000E+00  0.00000000E+00
  0.00000000E+00  0.00000000E+00  0.00000000E+00
  0.00000000E+00  0.00000000E+00  0.00000000E+00
  0.00000000E+00  0.00000000E+00  0.00000000E+00
  0.00000000E+00  0.00000000E+00  0.00000000E+00
  0.00000000E+00  0.00000000E+00  0.00000000E+00
  0.00000000E+00  0.00000000E+00  0.00000000E+00
  0.00000000E+00  0.00000000E+00  0.00000000E+00
  0.00000000E+00  0.00000000E+00  0.00000000E+00
  0.00000000E+00  0.00000000E+00  0.00000000E+00
  0.00000000E+00  0.00000000E+00  0.00000000E+00
  0.00000000E+00  0.00000000E+00  0.00000000E+00
  0.00000000E+00  0.00000000E+00  0.00000000E+00
  0.00000000E+00  0.00000000E+00  0.00000000E+00
  0.00000000E+00  0.00000000E+00  0.00000000E+00
  0.00000000E+00  0.00000000E+00  0.00000000E+00
  0.00000000E+00  0.00000000E+00  0.00000000E+00
  0.00000000E+00  0.00000000E+00  0.00000000E+00
  0.00000000E+00  0.00000000E+00  0.00000000E+00
  0.00000000E+00  0.00000000E+00  0.00000000E+00
  0.00000000E+00  0.00000000E+00  0.00000000E+00
  0.00000000E+00  0.00000000E+00  0.00000000E+00
  0.00000000E+00  0.00000000E+00  0.00000000E+00
  0.00000000E+00  0.00000000E+00  0.00000000E+00
  0.00000000E+00  0.00000000E+00  0.00000000E+00
  0.00000000E+00  0.00000000E+00  0.00000000E+00
  0.00000000E+00  0.00000000E+00  0.00000000E+00
  0.00000000E+00  0.00000000E+00  0.00000000E+00
  0.00000000E+00  0.00000000E+00  0.00000000E+00
  0.00000000E+00  0.00000000E+00  0.00000000E+00
  0.00000000E+00  0.00000000E+00  0.00000000E+00
  0.00000000E+00  0.00000000E+00  0.00000000E+00
  0.00000000E+00  0.00000000E+00  0.00000000E+00
  0.00000000E+00  0.00000000E+00  0.00000000E+00
  0.00000000E+00  0.00000000E+00  0.00000000E+00
  0.00000000E+00  0.00000000E+00  0.00000000E+00
  0.00000000E+00  0.00000000E+00  0.00000000E+00
  0.00000000E+00  0.00000000E+00  0.00000000E+00
  0.00000000E+00  0.00000000E+00  0.00000000E+00
  0.00000000E+00  0.00000000E+00  0.00000000E+00
  0.00000000E+00  0.00000000E+00  0.00000000E+00
  0.00000000E+00  0.00000000E+00  0.00000000E+00
  0.00000000E+00  0.00000000E+00  0.00000000E+00
  0.00000000E+00  0.00000000E+00  0.00000000E+00
  0.00000000E+00  0.00000000E+00  0.00000000E+00
  0.00000000E+00  0.00000000E+00  0.00000000E+00
  0.00000000E+00  0.00000000E+00  0.00000000E+00
  0.00000000E+00  0.00000000E+00  0.00000000E+00
  0.00000000E+00  0.00000000E+00  0.00000000E+00
  0.00000000E+00  0.00000000E+00  0.00000000E+00
  0.00000000E+00  0.00000000E+00  0.00000000E+00
  0.00000000E+00  0.00000000E+00  0.00000000E+00
  0.00000000E+00  0.00000000E+00  0.00000000E+00
  0.00000000E+00  0.00000000E+00  0.00000000E+00
  0.00000000E+00  0.00000000E+00  0.00000000E+00
  0.00000000E+00  0.00000000E+00  0.00000000E+00
  0.00000000E+00  0.00000000E+00  0.00000000E+00
  0.00000000E+00  0.00000000E+00  0.00000000E+00
  0.00000000E+00  0.00000000E+00  0.00000000E+00
  0.00000000E+00  0.00000000E+00  0.00000000E+00
  0.00000000E+00  0.00000000E+00  0.00000000E+00
  0.00000000E+00  0.00000000E+00  0.00000000E+00
  0.00000000E+00  0.00000000E+00  0.00000000E+00
  0.00000000E+00  0.00000000E+00  0.00000000E+00
  0.00000000E+00  0.00000000E+00  0.00000000E+00
  0.00000000E+00  0.00000000E+00  0.00000000E+00
  0.00000000E+00  0.00000000E+00  0.00000000E+00
  0.00000000E+00  0.00000000E+00  0.00000000E+00
  0.00000000E+00  0.00000000E+00  0.00000000E+00
  0.00000000E+00  0.00000000E+00  0.00000000E+00
  0.00000000E+00  0.00000000E+00  0.00000000E+00
  0.00000000E+00  0.00000000E+00  0.00000000E+00
  0.00000000E+00  0.00000000E+00  0.00000000E+00
  0.00000000E+00  0.00000000E+00  0.00000000E+00
  0.00000000E+00  0.00000000E+00  0.00000000E+00
  0.00000000E+00  0.00000000E+00  0.00000000E+00
  0.00000000E+00  0.00000000E+00  0.00000000E+00
  0.00000000E+00  0.00000000E+00  0.00000000E+00
  0.00000000E+00  0.00000000E+00  0.00000000E+00
  0.00000000E+00  0.00000000E+00  0.00000000E+00
  0.00000000E+00  0.00000000E+00  0.00000000E+00
  0.00000000E+00  0.00000000E+00  0.00000000E+00
  0.00000000E+00  0.00000000E+00  0.00000000E+00
  0.00000000E+00  0.00000000E+00  0.00000000E+00
  0.00000000E+00  0.00000000E+00  0.00000000E+00
  0.00000000E+00  0.00000000E+00  0.00000000E+00
  0.00000000E+00  0.00000000E+00  0.00000000E+00
  0.00000000E+00  0.00000000E+00  0.00000000E+00
  0.00000000E+00  0.00000000E+00  0.00000000E+00
  0.00000000E+00  0.00000000E+00  0.00000000E+00
  0.00000000E+00  0.00000000E+00  0.00000000E+00
  0.00000000E+00  0.00000000E+00  0.00000000E+00
  0.00000000E+00  0.00000000E+00  0.00000000E+00
  0.00000000E+00  0.00000000E+00  0.00000000E+00
  0.00000000E+00  0.00000000E+00  0.00000000E+00
  0.00000000E+00  0.00000000E+00  0.00000000E+00
  0.00000000E+00  0.00000000E+00  0.00000000E+00
  0.00000000E+00  0.00000000E+00  0.00000000E+00
  0.00000000E+00  0.00000000E+00  0.00000000E+00
  0.00000000E+00  0.00000000E+00  0.00000000E+00
  0.00000000E+00  0.00000000E+00  0.00000000E+00
  0.00000000E+00  0.00000000E+00  0.00000000E+00
  0.00000000E+00  0.00000000E+00  0.00000000E+00
  0.00000000E+00  0.00000000E+00  0.00000000E+00
  0.00000000E+00  0.00000000E+00  0.00000000E+00
  0.00000000E+00  0.00000000E+00  0.00000000E+00
  0.00000000E+00  0.00000000E+00  0.00000000E+00
  0.00000000E+00  0.00000000E+00  0.00000000E+00
  0.00000000E+00  0.00000000E+00  0.00000000E+00
  0.00000000E+00  0.00000000E+00  0.00000000E+00
  0.00000000E+00  0.00000000E+00  0.00000000E+00
  0.00000000E+00  0.00000000E+00  0.00000000E+00
  0.00000000E+00  0.00000000E+00  0.00000000E+00
  0.00000000E+00  0.00000000E+00  0.00000000E+00
  0.00000000E+00  0.00000000E+00  0.00000000E+00
  0.00000000E+00  0.00000000E+00  0.00000000E+00
  0.00000000E+00  0.00000000E+00  0.00000000E+00
  0.00000000E+00  0.00000000E+00  0.00000000E+00
  0.00000000E+00  0.00000000E+00  0.00000000E+00
  0.00000000E+00  0.00000000E+00  0.00000000E+00
  0.00000000E+00  0.00000000E+00  0.00000000E+00
  0.00000000E+00  0.00000000E+00  0.00000000E+00
  0.00000000E+00  0.00000000E+00  0.00000000E+00
  0.00000000E+00  0.00000000E+00  0.00000000E+00
  0.00000000E+00  0.00000000E+00  0.00000000E+00
  0.00000000E+00  0.00000000E+00  0.00000000E+00
  0.00000000E+00  0.00000000E+00  0.00000000E+00
  0.00000000E+00  0.00000000E+00  0.00000000E+00
  0.00000000E+00  0.00000000E+00  0.00000000E+00
  0.00000000E+00  0.00000000E+00  0.00000000E+00
  0.00000000E+00  0.00000000E+00  0.00000000E+00
  0.00000000E+00  0.00000000E+00  0.00000000E+00
  0.00000000E+00  0.00000000E+00  0.00000000E+00
  0.00000000E+00  0.00000000E+00  0.00000000E+00
  0.00000000E+00  0.00000000E+00  0.00000000E+00
  0.00000000E+00  0.00000000E+00  0.00000000E+00
  0.00000000E+00  0.00000000E+00  0.00000000E+00
  0.00000000E+00  0.00000000E+00  0.00000000E+00
  0.00000000E+00  0.00000000E+00  0.00000000E+00
  0.00000000E+00  0.00000000E+00  0.00000000E+00
  0.00000000E+00  0.00000000E+00  0.00000000E+00
  0.00000000E+00  0.00000000E+00  0.00000000E+00
  0.00000000E+00  0.00000000E+00  0.00000000E+00
  0.00000000E+00  0.00000000E+00  0.00000000E+00
  0.00000000E+00  0.00000000E+00  0.00000000E+00
  0.00000000E+00  0.00000000E+00  0.00000000E+00
  0.00000000E+00  0.00000000E+00  0.00000000E+00
  0.00000000E+00  0.00000000E+00  0.00000000E+00
  0.00000000E+00  0.00000000E+00  0.00000000E+00
  0.00000000E+00  0.00000000E+00  0.00000000E+00
  0.00000000E+00  0.00000000E+00  0.00000000E+00
  0.00000000E+00  0.00000000E+00  0.00000000E+00
  0.00000000E+00  0.00000000E+00  0.00000000E+00
  0.00000000E+00  0.00000000E+00  0.00000000E+00
  0.00000000E+00  0.00000000E+00  0.00000000E+00
  0.00000000E+00  0.00000000E+00  0.00000000E+00
  0.00000000E+00  0.00000000E+00  0.00000000E+00
  0.00000000E+00  0.00000000E+00  0.00000000E+00
  0.00000000E+00  0.00000000E+00  0.00000000E+00
  0.00000000E+00  0.00000000E+00  0.00000000E+00
  0.00000000E+00  0.00000000E+00  0.00000000E+00
  0.00000000E+00  0.00000000E+00  0.00000000E+00
  0.00000000E+00  0.00000000E+00  0.00000000E+00
  0.00000000E+00  0.00000000E+00  0.00000000E+00
  0.00000000E+00  0.00000000E+00  0.00000000E+00
  0.00000000E+00  0.00000000E+00  0.00000000E+00
  0.00000000E+00  0.00000000E+00  0.00000000E+00
  0.00000000E+00  0.00000000E+00  0.00000000E+00
  0.00000000E+00  0.00000000E+00  0.00000000E+00
  0.00000000E+00  0.00000000E+00  0.00000000E+00
  0.00000000E+00  0.00000000E+00  0.00000000E+00
  0.00000000E+00  0.00000000E+00  0.00000000E+00
  0.00000000E+00  0.00000000E+00  0.00000000E+00
  0.00000000E+00  0.00000000E+00  0.00000000E+00
  0.00000000E+00  0.00000000E+00  0.00000000E+00
  0.00000000E+00  0.00000000E+00  0.00000000E+00
  0.00000000E+00  0.00000000E+00  0.00000000E+00
  0.00000000E+00  0.00000000E+00  0.00000000E+00
  0.00000000E+00  0.00000000E+00  0.00000000E+00
  0.00000000E+00  0.00000000E+00  0.00000000E+00
  0.00000000E+00  0.00000000E+00  0.00000000E+00
  0.00000000E+00  0.00000000E+00  0.00000000E+00
  0.00000000E+00  0.00000000E+00  0.00000000E+00
  0.00000000E+00  0.00000000E+00  0.00000000E+00
  0.00000000E+00  0.00000000E+00  0.00000000E+00
  0.00000000E+00  0.00000000E+00  0.00000000E+00
  0.00000000E+00  0.00000000E+00  0.00000000E+00
  0.00000000E+00  0.00000000E+00  0.00000000E+00
  0.00000000E+00  0.00000000E+00  0.00000000E+00
  0.00000000E+00  0.00000000E+00  0.00000000E+00
  0.00000000E+00  0.00000000E+00  0.00000000E+00
  0.00000000E+00  0.00000000E+00  0.00000000E+00
  0.00000000E+00  0.00000000E+00  0.00000000E+00
  0.00000000E+00  0.00000000E+00  0.00000000E+00
  0.00000000E+00  0.00000000E+00  0.00000000E+00
  0.00000000E+00  0.00000000E+00  0.00000000E+00
  0.00000000E+00  0.00000000E+00  0.00000000E+00
  0.00000000E+00  0.00000000E+00  0.00000000E+00
  0.00000000E+00  0.00000000E+00  0.00000000E+00
  0.00000000E+00  0.00000000E+00  0.00000000E+00
  0.00000000E+00  0.00000000E+00  0.00000000E+00
  0.00000000E+00  0.00000000E+00  0.00000000E+00
  0.00000000E+00  0.00000000E+00  0.00000000E+00
  0.00000000E+00  0.00000000E+00  0.00000000E+00
  0.00000000E+00  0.00000000E+00  0.00000000E+00
  0.00000000E+00  0.00000000E+00  0.00000000E+00
  0.00000000E+00  0.00000000E+00  0.00000000E+00
  0.00000000E+00  0.00000000E+00  0.00000000E+00
  0.00000000E+00  0.00000000E+00  0.00000000E+00
  0.00000000E+00  0.00000000E+00  0.00000000E+00
  0.00000000E+00  0.00000000E+00  0.00000000E+00
  0.00000000E+00  0.00000000E+00  0.00000000E+00
  0.00000000E+00  0.00000000E+00  0.00000000E+00
  0.00000000E+00  0.00000000E+00  0.00000000E+00
  0.00000000E+00  0.00000000E+00  0.00000000E+00
  0.00000000E+00  0.00000000E+00  0.00000000E+00
  0.00000000E+00  0.00000000E+00  0.00000000E+00
  0.00000000E+00  0.00000000E+00  0.00000000E+00
  0.00000000E+00  0.00000000E+00  0.00000000E+00
  0.00000000E+00  0.00000000E+00  0.00000000E+00
  0.00000000E+00  0.00000000E+00  0.00000000E+00
  0.00000000E+00  0.00000000E+00  0.00000000E+00
  0.00000000E+00  0.00000000E+00  0.00000000E+00
  0.00000000E+00  0.00000000E+00  0.00000000E+00
  0.00000000E+00  0.00000000E+00  0.00000000E+00
  0.00000000E+00  0.00000000E+00  0.00000000E+00
  0.00000000E+00  0.00000000E+00  0.00000000E+00
  0.00000000E+00  0.00000000E+00  0.00000000E+00
  0.00000000E+00  0.00000000E+00  0.00000000E+00
  0.00000000E+00  0.00000000E+00  0.00000000E+00
  0.00000000E+00  0.00000000E+00  0.00000000E+00
  0.00000000E+00  0.00000000E+00  0.00000000E+00
  0.00000000E+00  0.00000000E+00  0.00000000E+00
  0.00000000E+00  0.00000000E+00  0.00000000E+00
  0.00000000E+00  0.00000000E+00  0.00000000E+00
  0.00000000E+00  0.00000000E+00  0.00000000E+00
  0.00000000E+00  0.00000000E+00  0.00000000E+00
  0.00000000E+00  0.00000000E+00  0.00000000E+00
  0.00000000E+00  0.00000000E+00  0.00000000E+00
  0.00000000E+00  0.00000000E+00  0.00000000E+00
  0.00000000E+00  0.00000000E+00  0.00000000E+00
  0.00000000E+00  0.00000000E+00  0.00000000E+00
  0.00000000E+00  0.00000000E+00  0.00000000E+00
  0.00000000E+00  0.00000000E+00  0.00000000E+00
  0.00000000E+00  0.00000000E+00  0.00000000E+00
  0.00000000E+00  0.00000000E+00  0.00000000E+00
  0.00000000E+00  0.00000000E+00  0.00000000E+00
  0.00000000E+00  0.00000000E+00  0.00000000E+00
  0.00000000E+00  0.00000000E+00  0.00000000E+00
